; Anonymised release -- see datasets/README.md
; Coordinates: metres under an unpublished rigid-body
; transform (shape/scale preserved); no georeference.
; Do not use for geolocation.
[TITLE]
City D distribution network (anonymised)

[JUNCTIONS]
;ID                      Elevation       Demand Pattern                 
 161                              5.1   0.20285747201 2446                       ;
 162                              3.4    13.361545598 2439                       ;
 165                              4.2               0                            ;
 167                                3    4.9091508227 2486                       ;
 169                                6  0.040571494402 2441                       ;
 172                              3.7    0.7438108389 2440                       ;
 175                                4    7.1405830148 2439                       ;
 176                                5  0.013523939658 2440                       ;
 177                              2.3   0.56800092163 2484                       ;
 179                              3.9    94.653296441 2484                       ;
 180                              4.6               0                            ;
 181                              5.8    3.5430274632 2484                       ;
 182                              3.9   0.21638141167 2440                       ;
 183                              3.3    5.3283897064 2439                       ;
 184                              5.6    11.184208515 2439                       ;
 185                              2.8    24.829754574 2439                       ;
 186                                2    5.8287712543 2439                       ;
 188                              2.6    27.046581028 2486                       ;
 189                              1.1    1.1900972773 2484                       ;
 191                              1.4    1.8121933084 2484                       ;
 192                              1.4  0.081142988805 2446                       ;
 194                                3     3.326862541 2446                       ;
 195                                1    26.614900328 2439                       ;
 196                              2.4    3.2592434918 2439                       ;
 200                              1.6    10.900208055 2486                       ;
 202                              2.5  0.055177232387 2484                       ;
 204                              2.3   0.12171448321 2441                       ;
 206                              3.4    1.6499073308 2440                       ;
 207                              2.3  0.013523939658 2446                       ;
 208                              4.5   0.05409543406 2440                       ;
 209                                2               0                            ;
 212                                4  0.027047554744 2483                       ;
 214                                3               0                            ;
 215                                3    6.5590581535 2440                       ;
 219                              4.2     3.881339523 2440                       ;
 224                              2.4               0                            ;
 226                              3.1  0.013523939658 2483                       ;
 228                              3.5               0                            ;
 232                              3.1               0                            ;
 237                              2.5   0.74378909258 2484                       ;
 245                                3               0                            ;
 248                              4.8               0                            ;
 251                              4.9               0                            ;
 255                              5.2               0                            ;
 257                                5               0                            ;
 260                              5.1               0                            ;
 265                                5               0                            ;
 269                              5.1   0.62209635569 2440                       ;
 277                              2.4               0                            ;
 282                                2               0                            ;
 290                              1.5               0                            ;
 291                                2               0                            ;
 293                              1.4   0.48685793283 2441                       ;
 297                              1.1               0                            ;
 304                                2               0                            ;
 307                                1               0                            ;
 308                                1               0                            ;
 310                              3.6   0.31104801556 2440                       ;
 311                                2               0                            ;
 319                              2.4               0                            ;
 334                              2.2               0                            ;
 343                              1.9               0                            ;
 355                                1               0                            ;
 356                              3.7               0                            ;
 358                              1.1               0                            ;
 369                              2.9               0                            ;
 370                              2.2               0                            ;
 382                              0.7   0.06772745618 2483                       ;
 393                              3.7               0                            ;
 416                              1.4               0                            ;
 458                              3.3               0                            ;
 525                              4.6               0                            ;
 526                              4.6               0                            ;
 529                              4.6               0                            ;
 531                              2.9               0                            ;
 532                              2.9               0                            ;
 534                              1.4               0                            ;
 543                              4.8               0                            ;
 547                              4.9               0                            ;
 550                              1.1               0                            ;
 555                              2.3               0                            ;
 561                              2.7               0                            ;
 567                              2.9    5.1120082947 2439                       ;
 568                              3.5               0                            ;
 570                              2.3               0                            ;
 575                              4.6               0                            ;
 579                              2.7               0                            ;
 584                              1.8               0                            ;
 585                              3.6     4.138292429 2440                       ;
 603                              2.5    6.4373436703 2439                       ;
 607                              2.6               0                            ;
 611                              2.1    0.7843823333 2446                       ;
 615                              2.3    4.0706733799 2440                       ;
 621                              3.9               0                            ;
 635                              4.2               0                            ;
 639                                3               0                            ;
 640                                2   0.21638141167 2484                       ;
 642                              3.3               0                            ;
 644                                3               0                            ;
 647                              4.3               0                            ;
 668                              3.2               0                            ;
 697                              7.1               0                            ;
 712                              2.9               0                            ;
 713                              3.5    24.085943842 2439                       ;
 717                              3.1               0                            ;
 720                                2               0                            ;
 727                                2               0                            ;
 736                              2.8               0                            ;
 738                              3.7               0                            ;
 739                                3               0                            ;
 741                              4.6               0                            ;
 744                              2.5               0                            ;
 745                                2               0                            ;
 752                                2               0                            ;
 753                                2               0                            ;
 759                                4               0                            ;
 760                                4               0                            ;
 774                              4.3               0                            ;
 775                              3.9               0                            ;
 777                              4.2               0                            ;
 780                              3.9               0                            ;
 786                              3.9               0                            ;
 787                              3.9    3.3133386013 2445                       ;
 790                                4               0                            ;
 793                                2               0                            ;
 799                              2.1               0                            ;
 807                              2.5               0                            ;
 809                              4.8               0                            ;
 813                              5.3               0                            ;
 815                              2.8               0                            ;
 816                              1.8               0                            ;
 818                              3.1    26.209185384 2439                       ;
 824                              2.1               0                            ;
 827                              3.7               0                            ;
 829                              3.4               0                            ;
 841                                1               0                            ;
 844                              3.8               0                            ;
 849                                2               0                            ;
 862                                2               0                            ;
 865                                2               0                            ;
 867                              1.9               0                            ;
 872                                4               0                            ;
 873                              4.3               0                            ;
 875                              4.1               0                            ;
 876                                4               0                            ;
 879                              4.2               0                            ;
 885                              3.5               0                            ;
 888                              2.2  0.013523939658 2445                       ;
 891                              0.5               0                            ;
 896                                3               0                            ;
 899                              3.8               0                            ;
 903                                3               0                            ;
 908                              1.3               0                            ;
 912                              4.4               0                            ;
 917                                3               0                            ;
 924                                3               0                            ;
 926                              2.5               0                            ;
 939                                3               0                            ;
 941                              5.7               0                            ;
 942                              5.1               0                            ;
 946                              1.5               0                            ;
 948                                2               0                            ;
 952                              1.5  0.013523939658 2484                       ;
 953                              1.9               0                            ;
 955                              2.3               0                            ;
 956                                2               0                            ;
 962                                4               0                            ;
 965                              4.1               0                            ;
 967                              3.6               0                            ;
 972                                3               0                            ;
 977                              3.8               0                            ;
 979                              4.3               0                            ;
 983                                3    23.504419199 2439                       ;
 988                              3.3               0                            ;
 996                                3               0                            ;
 1001                               3               0                            ;
 1002                             2.6               0                            ;
 1011                             5.3               0                            ;
 1026                               5               0                            ;
 1030                             3.3               0                            ;
 1034                             4.5               0                            ;
 1047                             0.2               0                            ;
 1048                             0.9               0                            ;
 1050                             0.5               0                            ;
 1058                             3.9               0                            ;
 1060                             3.8               0                            ;
 1063                             0.8    22.436036404 2439                       ;
 1067                               3               0                            ;
 1079                             1.4               0                            ;
 1080                             1.3               0                            ;
 1096                             1.5               0                            ;
 1110                             2.6               0                            ;
 1113                             3.2               0                            ;
 1117                             0.5               0                            ;
 1121                             0.9               0                            ;
 1123                             1.6               0                            ;
 1128                               1               0                            ;
 1136                               3               0                            ;
 1142                               4               0                            ;
 1148                             3.5               0                            ;
 1153                               2               0                            ;
 1154                               2               0                            ;
 1159                             2.4               0                            ;
 1163                             3.1               0                            ;
 1168                             3.5               0                            ;
 1171                             2.8               0                            ;
 1173                               3               0                            ;
 1178                             3.1               0                            ;
 1180                             2.1               0                            ;
 1188                             3.4               0                            ;
 1192                               3               0                            ;
 1195                             3.9               0                            ;
 1197                             3.2               0                            ;
 1202                               3               0                            ;
 1208                             1.9               0                            ;
 1210                             3.8               0                            ;
 1214                             3.7               0                            ;
 1215                               2               0                            ;
 1217                             2.1               0                            ;
 1218                             2.1               0                            ;
 1220                             2.2               0                            ;
 1221                             5.9    3.6108630018 2484                       ;
 1231                             3.1               0                            ;
 1233                             4.6               0                            ;
 1236                             2.9               0                            ;
 1237                             2.1               0                            ;
 1242                             2.6               0                            ;
 1244                             2.8    1.0548588545 2440                       ;
 1245                             2.8               0                            ;
 1249                               2   0.05409543406 2440                       ;
 1250                               2               0                            ;
 1253                             3.4               0                            ;
 1269                             3.6               0                            ;
 1277                             2.1               0                            ;
 1281                               4               0                            ;
 1291                               3               0                            ;
 1306                             3.4               0                            ;
 1312                             0.5               0                            ;
 1317                             4.2               0                            ;
 1318                             4.2               0                            ;
 1320                               6               0                            ;
 1329                             1.1               0                            ;
 1331                             4.5               0                            ;
 1333                               4               0                            ;
 1334                             4.9               0                            ;
 1337                             0.5               0                            ;
 1343                             1.1               0                            ;
 1348                             4.6               0                            ;
 1365                             0.5               0                            ;
 1372                             2.4               0                            ;
 1374                             0.5               0                            ;
 1379                             0.2               0                            ;
 1382                             0.5               0                            ;
 1387                             0.5               0                            ;
 1390                             0.5               0                            ;
 1397                             1.1               0                            ;
 1402                             1.1               0                            ;
 1409                             1.1               0                            ;
 1411                             3.2               0                            ;
 1412                             3.1               0                            ;
 1414                             2.5               0                            ;
 1419                             2.4               0                            ;
 1420                             2.4               0                            ;
 1422                               3               0                            ;
 1424                             4.6               0                            ;
 1429                             4.3               0                            ;
 1432                               3               0                            ;
 1434                             2.4               0                            ;
 1437                             2.6               0                            ;
 1439                             0.5               0                            ;
 1443                             4.8               0                            ;
 1448                             3.5               0                            ;
 1453                             4.5               0                            ;
 1456                             2.3               0                            ;
 1459                             4.6               0                            ;
 1461                               3               0                            ;
 1462                             2.3               0                            ;
 1468                             1.1               0                            ;
 1475                               2               0                            ;
 1480                             4.6               0                            ;
 1481                               4               0                            ;
 1486                             4.1               0                            ;
 1496                               4               0                            ;
 1497                               4               0                            ;
 1499                             2.4               0                            ;
 1506                             0.5               0                            ;
 1513                             1.1               0                            ;
 1520                               3               0                            ;
 1522                             2.7               0                            ;
 1524                             2.3               0                            ;
 1538                             2.6               0                            ;
 1540                             1.1               0                            ;
 1547                               2               0                            ;
 1565                             0.5               0                            ;
 1571                             2.3               0                            ;
 1581                             0.5               0                            ;
 1610                             0.5               0                            ;
 1634                             3.5               0                            ;
 1640                             3.2               0                            ;
 1643                             3.4               0                            ;
 1646                             2.1               0                            ;
 1659                             3.5               0                            ;
 1662                             3.3               0                            ;
 1669                               3               0                            ;
 1771                             4.6               0                            ;
 1773                             3.5               0                            ;
 1776                             3.3               0                            ;
 1784                             0.9               0                            ;
 1798                             5.5               0                            ;
 1802                             5.1               0                            ;
 1836                             2.2               0                            ;
 1840                               3               0                            ;
 1844                             3.1               0                            ;
 1849                             4.7               0                            ;
 1866                             2.9               0                            ;
 1884                             4.1               0                            ;
 1918                             2.5               0                            ;
 1920                             2.4               0                            ;
 1923                             2.3               0                            ;
 1983                               4               0                            ;
 1987                               4               0                            ;
 2057                               3               0                            ;
 2060                               4               0                            ;
 2063                             2.9               0                            ;
 2066                             4.6               0                            ;
 2069                               5               0                            ;
 2072                             1.5    2.4883850982 2439                       ;
 2075                             3.4               0                            ;
 2081                             1.5               0                            ;
 2129                             3.7               0                            ;
 2134                             2.7               0                            ;
 2138                             2.8               0                            ;
 2140                             2.8               0                            ;
 2145                             1.1               0                            ;
 2186                             4.2               0                            ;
 2198                             2.8               0                            ;
 2200                             3.5               0                            ;
 2202                             3.2               0                            ;
 2204                             1.6               0                            ;
 2206                             3.7               0                            ;
 2209                               2               0                            ;
 2222                             1.2               0                            ;
 2225                               2               0                            ;
 2232                             1.3               0                            ;
 2235                             1.3    4.4358168295 2484                       ;
 2237                             1.8               0                            ;
 2240                               3   0.05409543406 2483                       ;
 2271                             6.8               0                            ;
 2273                             5.4               0                            ;
 2279                             1.3               0                            ;
 2284                             3.3               0                            ;
 2287                             5.6               0                            ;
 2290                             2.8               0                            ;
 2292                             2.5               0                            ;
 2294                             3.5               0                            ;
 2296                             2.6               0                            ;
 2298                             1.9               0                            ;
 2382                             2.7               0                            ;
 2388                    2.9307532756               0                            ;
 2391                               0  0.081142988805 2483                       ;
 2402                    2.9649557703               0                            ;
 2405                             2.7    2.2449561318 2442                       ;
 2408                             2.7               0                            ;
 2411                     3.282407711               0                            ;
 2423                    1.8442959306               0                            ;
 2426                             1.1               0                            ;
 2429                    1.8060712256               0                            ;
 2460                               3    8.2360133637 2439                       ;
 2462                               3    19.771841714 2439                       ;
 2464                               3  0.013524913374 2483                       ;
 2466                               2   0.47333399317 2440                       ;
 2468                               2   0.05409543406 2483                       ;
 2470                               3   0.12171448321 2483                       ;
 2472                               2  0.040571494402 2483                       ;
 2474                               3   0.29752440047 2440                       ;
 2476                             2.8  0.094666928463 2483                       ;
 2478                               4   0.55447698197 2440                       ;
 2480                               3   0.18932282148 2440                       ;
 2499                    3.6488196237               0                            ;
 2504                             0.5               0                            ;
 2519                             0.5               0                            ;
 2521                             0.5               0                            ;
 3083                             3.5     5.206675116 2439                       ;
 30-A                             2.8               0                            ;
 30-B                             2.8               0                            ;
 31-A                             3.2               0                            ;
 31-B                             3.2               0                            ;
 32-A                               5               0                            ;
 32-B                               5               0                            ;
 33-A                             3.1               0                            ;
 33-B                             3.1               0                            ;
 34-A                               2               0                            ;
 34-B                               2               0                            ;
 35-A                             4.1               0                            ;
 35-B                             4.1               0                            ;
 36-A                               2               0                            ;
 36-B                               2               0                            ;
 37-A                             2.9               0                            ;
 37-B                             2.9               0                            ;
 38-A                             3.2               0                            ;
 38-B                             3.2               0                            ;
 39-A                             5.1               0                            ;
 39-B                             5.1               0                            ;
 40-A                             2.7               0                            ;
 40-B                             2.7               0                            ;
 41-A                             2.5               0                            ;
 41-B                             2.5               0                            ;
 42-A                               3               0                            ;
 42-B                               3               0                            ;
 43-A                             2.4               0                            ;
 43-B                             2.4               0                            ;
 44-A                               3               0                            ;
 44-B                               3               0                            ;
 45-A                             2.2               0                            ;
 45-B                             2.2               0                            ;
 46-A                               2               0                            ;
 46-B                               2               0                            ;
 49-A                               3               0                            ;
 49-B                               3               0                            ;
 50-A                             3.9               0                            ;
 50-B                             3.9               0                            ;
 52-A                             2.3               0                            ;
 52-B                             2.3               0                            ;
 53-A                               4               0                            ;
 53-B                               4               0                            ;
 54-A                               2               0                            ;
 54-B                               2               0                            ;
 55-A                             3.1               0                            ;
 55-B                             3.1               0                            ;
 56-A                             3.5               0                            ;
 56-B                             3.5               0                            ;
 57-A                             1.5               0                            ;
 57-B                             1.5               0                            ;
 58-A                               2               0                            ;
 58-B                               2               0                            ;
 59-A                               2               0                            ;
 59-B                               2               0                            ;
 60-A                               2               0                            ;
 60-B                               2               0                            ;
 61-A                             1.5               0                            ;
 61-B                             1.5               0                            ;
 62-A                               2               0                            ;
 62-B                               2               0                            ;
 63-A                               4               0                            ;
 63-B                               4               0                            ;
 64-A                             1.8               0                            ;
 64-B                             1.8               0                            ;
 65-A                             1.1               0                            ;
 65-B                             1.1               0                            ;
 66-A                             1.1               0                            ;
 66-B                             1.1               0                            ;
 67-A                               4               0                            ;
 67-B                               4               0                            ;
 68-A                             2.5               0                            ;
 68-B                             2.5               0                            ;
 69-A                               3               0                            ;
 69-B                               3               0                            ;
 70-A                               3               0                            ;
 70-B                               3               0                            ;
 71-A                               3               0                            ;
 71-B                               3               0                            ;
 74-A                               5               0                            ;
 74-B                               5               0                            ;
 76-A                               4               0                            ;
 76-B                               4               0                            ;
 77-A                               2               0                            ;
 77-B                               2               0                            ;
 79-A                             1.7               0                            ;
 79-B                             1.7               0                            ;
 80-A                             4.6               0                            ;
 80-B                             4.6               0                            ;
 82-A                               2               0                            ;
 82-B                               2               0                            ;
 83-A                             2.7               0                            ;
 83-B                             2.7               0                            ;
 84-A                             2.8               0                            ;
 84-B                             2.8               0                            ;
 85-A                             1.5               0                            ;
 85-B                             1.5               0                            ;
 86-A                             2.4               0                            ;
 86-B                             2.4               0                            ;
 87-A                             1.5               0                            ;
 87-B                             1.5               0                            ;
 88-A                               2               0                            ;
 88-B                               2               0                            ;
 89-A                             2.6               0                            ;
 89-B                             2.6               0                            ;
 90-A                             4.2               0                            ;
 90-B                             4.2               0                            ;
 91-A                               3               0                            ;
 91-B                               3               0                            ;
 92-A                             1.3               0                            ;
 92-B                             1.3               0                            ;
 93-A                             2.8               0                            ;
 93-B                             2.8               0                            ;
 94-A                             3.4               0                            ;
 94-B                             3.4               0                            ;
 96-A                             3.8               0                            ;
 96-B                             3.8               0                            ;
 97-A                             2.6               0                            ;
 97-B                             2.6               0                            ;
 98-A                            2.45               0                            ;
 98-B                            2.45               0                            ;
 99-A                             3.5               0                            ;
 99-B                             3.5               0                            ;
 100-A                            3.2               0                            ;
 100-B                            3.2               0                            ;
 101-A                            3.6               0                            ;
 101-B                            3.6               0                            ;
 102-A                              3               0                            ;
 102-B                              3               0                            ;
 103-A                              3               0                            ;
 103-B                              3               0                            ;
 104-A                              3               0                            ;
 104-B                              3               0                            ;
 2116-A                             3               0                            ;
 2116-B                             3               0                            ;
 2171-A                           3.2               0                            ;
 2171-B                           3.2               0                            ;
 2179-A                             2               0                            ;
 2179-B                             2               0                            ;
 2191-A                           4.3               0                            ;
 2191-B                           4.3               0                            ;
 2194-A                           4.5               0                            ;
 2194-B                           4.5               0                            ;
 2211-A                           1.9               0                            ;
 2211-B                           1.9               0                            ;
 2214-A                           5.8               0                            ;
 2214-B                           5.8               0                            ;
 2227-A                             2               0                            ;
 2227-B                             2               0                            ;
 2242-A                           2.2               0                            ;
 2242-B                           2.2               0                            ;
 2393-A                 0.22273569583               0                            ;
 2393-B                 0.22273569583               0                            ;
 2490-A                  3.9775794752               0                            ;
 2490-B                  3.9775794752               0                            ;
 2493-A                  3.8175213602               0                            ;
 2493-B                  3.8175213602               0                            ;
 2497-A                             0               0                            ;
 2497-B                             0               0                            ;

[RESERVOIRS]
;ID                                   Head                  Pattern
 2506                           41.14                     2516   ;

[TANKS]
;ID                              Elevation           Init Level            Min Level            Max Level             Diameter           Min Volume Volume Curve         Overflow            

[PIPES]
;ID                   Node1                Node2                              Length             Diameter            Roughness           Minor Loss               Status
 223                  41-B                 224                     28.304506316             100             130               0                 Open   ;
 225                  226                  41-A                     113.2527372             100             130               0                 Open   ;
 230                  226                  232                     47.279224671             100             130               0                 Open   ;
 247                  248                  161                     111.48790502             150             130               0                 Open   ;
 250                  251                  265                     58.487624735             300             130               0                 Open   ;
 253                  169                  255                     123.36167506             350             130               0                 Open   ;
 262                  547                  251                     94.561172889             300             130               0                 Open   ;
 266                  245                  248                     181.88531222             150             130               0                 Open   ;
 284                  282                  200                     86.460861449             200             130               0                 Open   ;
 286                  319                  177                     21.227544986             150             130               0                 Open   ;
 292                  293                  416                     47.257992285             150             130               0                 Open   ;
 306                  307                  308                     170.44644511             200             130               0                 Open   ;
 323                  186                  304                     109.59717752             200             130               0                 Open   ;
 333                  334                  290                     258.08048798             200             130               0                 Open   ;
 354                  355                  356                     1023.2046723             200             130               0                 Open   ;
 368                  369                  370                      106.2046741             200             130               0                 Open   ;
 380                  355                  382                     89.330200182             150             130               0                 Open   ;
 385                  189                  358                     120.58520536             200             130               0                 Open   ;
 392                  393                  319                     1421.8405824             200             130               0                 Open   ;
 405                  206                  369                     125.65896933             200             130               0                 Open   ;
 407                  343                  370                      336.1510722             200             130               0                 Open   ;
 453                  334                  282                     1155.5107277             200             130               0                 Open   ;
 456                  416                  307                     183.15662391             200             130               0                 Open   ;
 464                  356                  393                     239.38582781             200             130               0                 Open   ;
 522                  525                  526                     2.4217027985             300             130               0                 Open   ;
 527                  575                  529                     4.9155289566             300             130               0                 Open   ;
 530                  531                  532                      4.486352985             300             130               0                 Open   ;
 566                  567                  568                     56.301027557             200             130               0                 Open   ;
 572                  529                  525                     19.489643595             300             130               0                 Open   ;
 577                  214                  579                     59.853130613             300             130               0                 Open   ;
 583                  584                  585                     86.996701171             200             130               0                 Open   ;
 593                  543                  176                     90.046058753             110             130               0                 Open   ;
 596                  181                  697                     94.301223059             200             130               0                 Open   ;
 601                  668                  603                     96.248595939             200             130               0                 Open   ;
 606                  579                  607                     47.501717988             300             130               0                 Open   ;
 609                  534                  611                     70.462704313             300             130               0                 Open   ;
 614                  570                  615                     89.137998468             300             130               0                 Open   ;
 619                  219                  621                     118.46351754             200             130               0                 Open   ;
 634                  621                  635                     258.80500138             300             130               0                 Open   ;
 638                  639                  640                     139.64105067             300             130               0                 Open   ;
 641                  568                  642                     83.195986004             200             130               0                 Open   ;
 646                  584                  647                     207.84865106             200             130               0                 Open   ;
 696                  697                  547                     354.04994868             300             130               0                 Open   ;
 705                  939                  531                     601.04448954             300             130               0                 Open   ;
 706                  607                  639                     222.35428619             300             130               0                 Open   ;
 707                  526                  697                       307.616778             300             130               0                 Open   ;
 709                  712                  713                     85.002442742             350             130               0                 Open   ;
 714                  717                  712                     34.930750846             350             130               0                 Open   ;
 726                  727                  720                     151.09560558             350             130               0                 Open   ;
 730                  727                  717                     1220.9739016             350             130               0                 Open   ;
 758                  759                  760                     3.8334266843             400             130               0                 Open   ;
 770                  844                  1884                    10.639907422             400             130               0                 Open   ;
 806                  807                  744                     9.0903076646             400             130               0                 Open   ;
 814                  815                  816                     11.022623142             400             130               0                 Open   ;
 874                  875                  876                     27.425602642             400             130               0                 Open   ;
 877                  873                  879                     27.762525138             400             130               0                 Open   ;
 880                  172                  774                     88.228856633             250             130               0                 Open   ;
 884                  885                  204                     49.213842459             250             130               0                 Open   ;
 892                  867                  175                     47.679866463             200             130               0                 Open   ;
 916                  917                  1030                    95.594871535             150             130               0                 Open   ;
 921                  739                  815                     42.212331954             400             130               0                 Open   ;
 922                  196                  924                     79.020226091             200             130               0                 Open   ;
 925                  926                  753                     64.390260123             400             130               0                 Open   ;
 940                  941                  942                     41.970430788             400             130               0                 Open   ;
 947                  948                  209                     66.814906859             200             130               0                 Open   ;
 951                  952                  953                      93.67457473             400             130               0                 Open   ;
 954                  955                  956                     51.226425245             250             130               0                 Open   ;
 964                  965                  879                     61.169498856             400             130               0                 Open   ;
 966                  967                  875                     62.563905195             400             130               0                 Open   ;
 970                  167                  972                     112.41820482             250             130               0                 Open   ;
 978                  979                  759                      70.34958512             400             130               0                 Open   ;
 982                  983                  1067                    132.10471769             400             130               0                 Open   ;
 987                  988                  962                     313.56467415             400             130               0                 Open   ;
 995                  903                  996                     80.583178055             400             130               0                 Open   ;
 1000                 1001                 1002                    86.933977415             400             130               0                 Open   ;
 1010                 813                  1011                     91.70516759             400             130               0                 Open   ;
 1037                 872                  967                     113.24524195             400             130               0                 Open   ;
 1046                 1047                 1048                    117.01571419             400             130               0                 Open   ;
 1049                 891                  1050                    121.90383474             400             130               0                 Open   ;
 1062                 1063                 1047                    149.17832108             500             130               0                 Open   ;
 1065                 979                  1067                     656.8663434             400             130               0                 Open   ;
 1072                 956                  885                     141.97583266             250             130               0                 Open   ;
 1078                 1079                 1080                    161.21453278             400             130               0                 Open   ;
 1095                 1096                 179                     244.51616551             400             130               0                 Open   ;
 1101                 862                  979                     206.35049317             400             130               0                 Open   ;
 1102                 942                  1034                     216.2987457             400             130               0                 Open   ;
 1112                 1113                 896                      414.8652575             400             130               0                 Open   ;
 1114                 996                  793                     400.20396867             400             130               0                 Open   ;
 1120                 1047                 1121                    567.78817742             400             130               0                 Open   ;
 1122                 1123                 948                     671.65877488             400             130               0                 Open   ;
 1131                 1121                 948                     742.03708975             400             130               0                 Open   ;
 1132                 1117                 1128                    840.11078165             400             130               0                 Open   ;
 1134                 1048                 1123                     772.0797131             400             130               0                 Open   ;
 1152                 1153                 1154                    4.7064148331             500             130               0                 Open   ;
 1167                 1168                 1148                    10.590948595             500             130               0                 Open   ;
 1179                 1159                 1180                    13.509131896             500             130               0                 Open   ;
 1187                 1188                 1214                    19.596731676             700             130               0                 Open   ;
 1209                 1210                 1168                    40.919265342             500             130               0                 Open   ;
 1216                 1217                 1218                    49.043646983             500             130               0                 Open   ;
 1219                 1220                 1221                    69.976096689             400             130               0                 Open   ;
 1240                 1180                 1208                    163.33883327             500             130               0                 Open   ;
 1241                 1237                 1242                    79.562304048             500             130               0                 Open   ;
 1243                 1244                 1245                     119.6845012             300             130               0                 Open   ;
 1248                 1250                 1249                     104.5286663             350             130               0                 Open   ;
 1254                 1154                 1173                    218.27612345             500             130               0                 Open   ;
 1261                 1253                 1153                    297.30035666             500             130               0                 Open   ;
 1268                 1269                 1142                    471.73060638             500             130               0                 Open   ;
 1275                 1231                 1269                     561.9668657             500             130               0                 Open   ;
 1276                 1277                 1136                    122.74270959             400             130               0                 Open   ;
 1280                 1281                 1210                     127.8478377             500             130               0                 Open   ;
 1282                 809                  1281                      142.902845             500             130               0                 Open   ;
 1287                 1217                 1220                    601.00220329             500             130               0                 Open   ;
 1290                 1291                 1236                    275.29774067             500             130               0                 Open   ;
 1316                 1317                 1318                     23.44476046             600             130               0                 Open   ;
 1319                 1320                 2066                    37.523637498             600             130               0                 Open   ;
 1327                 1513                 1329                    364.53830778             700             130               0                 Open   ;
 1330                 1317                 1331                    65.256147669             600             130               0                 Open   ;
 1332                 1333                 1334                    562.06253787             600             130               0                 Open   ;
 1335                 1334                 1320                    131.34370841             600             130               0                 Open   ;
 1342                 1343                 1329                    92.827994175             600             130               0                 Open   ;
 1346                 212                  1348                    165.31025989              80             130               0                 Open   ;
 1364                 1337                 1365                    334.63628603             600             130               0                 Open   ;
 1368                 1365                 1312                    640.57977161             600             130               0                 Open   ;
 1373                 1374                 195                     1350.3799623             600             130               0                 Open   ;
 1410                 1411                 1412                    9.0617039516             700             130               0                 Open   ;
 1421                 1422                 1411                      15.7948184             700             130               0                 Open   ;
 1427                 775                  1429                     25.59715684             700             130               0                 Open   ;
 1433                 1434                 1499                    63.197252881             700             130               0                 Open   ;
 1438                 1439                 1390                    652.17845347             700             130               0                 Open   ;
 1457                 165                  1459                    114.61748439             200             130               0                 Open   ;
 1460                 1461                 1462                    63.064542785             700             130               0                 Open   ;
 1463                 1420                 277                     71.452881961             700             130               0                 Open   ;
 1469                 1453                 1424                    127.34060372             700             130               0                 Open   ;
 1479                 1480                 1481                    87.834622057             700             130               0                 Open   ;
 1485                 1481                 1486                    93.733334746             700             130               0                 Open   ;
 1490                 1443                 1453                    98.013747807             700             130               0                 Open   ;
 1495                 1496                 1497                    99.360406243             700             130               0                 Open   ;
 1503                 1429                 1496                    109.45559666             700             130               0                 Open   ;
 1508                 1412                 790                     114.44002671             700             130               0                 Open   ;
 1519                 1411                 1520                    130.99667171             700             130               0                 Open   ;
 1521                 1522                 1461                    131.07197591             700             130               0                 Open   ;
 1523                 1414                 1524                    137.25764513             700             130               0                 Open   ;
 1526                 741                  1480                    153.39631392             700             130               0                 Open   ;
 1528                 1497                 741                     157.68235238             700             130               0                 Open   ;
 1531                 1387                 1506                    138.68441588             700             130               0                 Open   ;
 1536                 1462                 1422                    307.46251599             700             130               0                 Open   ;
 1545                 1456                 1538                     781.9481647             700             130               0                 Open   ;
 1546                 1547                 1522                    812.22399469             700             130               0                 Open   ;
 1642                 1640                 1643                     8.082329179             700             130               0                 Open   ;
 1648                 1643                 1634                    12.137091353             700             130               0                 Open   ;
 1651                 1634                 1306                    9.7913563154             600             130               0                 Open   ;
 1660                 1634                 1188                    21.368391683             700             130               0                 Open   ;
 1667                 215                  1669                    50.835996075             200             130               0                 Open   ;
 1683                 207                  1646                    98.937307795             100             130               0                 Open   ;
 1695                 1662                 208                     142.17999458             150             130               0                 Open   ;
 1697                 1432                 809                     274.27369747             700             130               0                 Open   ;
 1700                 1646                 1662                     168.9377465             100             130               0                 Open   ;
 1712                 1468                 61-A                    404.59164875             900             130               0                 Open   ;
 1716                 570                  62-A                    39.555643171             300             130               0                 Open   ;
 1717                 62-B                 555                     55.964046322             300             130               0                 Open   ;
 1719                 57-B                 1468                    98.927905227             900             130               0                 Open   ;
 1720                 304                  59-A                    392.65243146             200             130               0                 Open   ;
 1721                 59-B                 277                      11.24136946             200             130               0                 Open   ;
 1722                 1419                 58-A                    24.972914849             700             130               0                 Open   ;
 1723                 58-B                 1420                     12.72010214             700             130               0                 Open   ;
 1724                 297                  64-A                     30.89096218             200             130               0                 Open   ;
 1725                 64-B                 358                     214.21389916             200             130               0                 Open   ;
 1727                 66-B                 1397                    9.3066519768             700             130               0                 Open   ;
 1728                 1402                 65-A                    16.503448399             700             130               0                 Open   ;
 1735                 70-B                 903                     45.971699082             400             130               0                 Open   ;
 1736                 872                  90-A                    41.088632464             400             130               0                 Open   ;
 1737                 90-B                 873                     22.344713055             400             130               0                 Open   ;
 1739                 43-B                 1178                    27.052985988              50             130               0                 Open   ;
 1741                 33-B                 393                     70.990629348             200             130               0                 Open   ;
 1743                 35-B                 356                     69.158603222             200             130               0                 Open   ;
 1745                 79-B                 416                     40.252796702             200             130               0                 Open   ;
 1747                 83-B                 1171                    15.251762081             500             130               0                 Open   ;
 1748                 1171                 84-A                    42.530397278             500             130               0                 Open   ;
 1749                 84-B                 1195                    36.071493439             500             130               0                 Open   ;
 1754                 752                  77-A                    15.675613168             400             130               0                 Open   ;
 1755                 77-B                 753                     11.375100997             400             130               0                 Open   ;
 1757                 790                  76-A                    25.841630563             400             130               0                 Open   ;
 1758                 76-B                 849                     34.230553884             400             130               0                 Open   ;
 1759                 561                  56-A                    23.671955077             300             130               0                 Open   ;
 1760                 56-B                 644                     117.28565723             300             130               0                 Open   ;
 1762                 31-B                 1163                    16.375294417             500             130               0                 Open   ;
 1763                 1192                 55-A                     26.10780536             500             130               0                 Open   ;
 1764                 55-B                 1202                    38.513185172             500             130               0                 Open   ;
 1765                 1547                 561                     99.345845826             700             130               0                 Open   ;
 1774                 1771                 1773                    560.71332908             200             130               0                 Open   ;
 1777                 1771                 1776                    199.46468061             200             130               0                 Open   ;
 1780                 550                  92-A                    21.694047567             300             130               0                 Open   ;
 1782                 1136                 91-A                    15.560853986             400             130               0                 Open   ;
 1783                 91-B                 827                     917.57790351             400             130               0                 Open   ;
 1785                 1437                 1784                    870.17679755             600             130               0                 Open   ;
 1787                 191                  1784                    142.33312194             100             130               0                 Open   ;
 1788                 260                  39-B                    99.499881259             150             130               0                 Open   ;
 1790                 257                  32-B                    99.141272391             150             130               0                 Open   ;
 1792                 543                  88-A                    249.93122107             110             130               0                 Open   ;
 1793                 88-B                 547                     48.600614158             300             130               0                 Open   ;
 1799                 1026                 1798                    77.460688696             400             130               0                 Open   ;
 1800                 1798                 941                     24.813943295             400             130               0                 Open   ;
 1801                 180                  1798                    76.638981368             150             130               0                 Open   ;
 1803                 1011                 1802                    22.491970992             400             130               0                 Open   ;
 1804                 1802                 1026                     79.72206885             400             130               0                 Open   ;
 1805                 184                  1802                    77.156989653             250             130               0                 Open   ;
 1806                 1214                 54-A                    218.04456046             700             130               0                 Open   ;
 1807                 54-B                 1215                     11.92188566             700             130               0                 Open   ;
 1808                 1215                 102-A                   43.416897627             700             130               0                 Open   ;
 1809                 102-B                1432                    10.835552226             700             130               0                 Open   ;
 1810                 744                  52-A                    27.400040137             400             130               0                 Open   ;
 1811                 52-B                 745                      24.17163393             400             130               0                 Open   ;
 1813                 101-B                1148                    29.680455602             500             130               0                 Open   ;
 1815                 809                  74-A                     71.79788523             400             130               0                 Open   ;
 1816                 74-B                 813                     25.011889973             400             130               0                 Open   ;
 1817                 774                  63-A                    422.36666578             400             130               0                 Open   ;
 1818                 63-B                 775                     29.758020912             400             130               0                 Open   ;
 1819                 1306                 53-A                     37.69362577             600             130               0                 Open   ;
 1820                 53-B                 1333                    364.98593635             600             130               0                 Open   ;
 1821                 1640                 104-B                   12.287764153             150             130               0                 Open   ;
 1822                 104-A                245                     59.613947881             150             130               0                 Open   ;
 1823                 1640                 103-A                   21.615592166             700             130               0                 Open   ;
 1824                 103-B                1173                    8.8100727454             500             130               0                 Open   ;
 1826                 40-B                 1253                    113.69024768             150             130               0                 Open   ;
 1827                 862                  36-A                    29.903163743             400             130               0                 Open   ;
 1828                 36-B                 865                     6.8639931305             400             130               0                 Open   ;
 1829                 736                  97-A                    22.800789646             400             130               0                 Open   ;
 1830                 97-B                 799                     154.29530336             400             130               0                 Open   ;
 1835                 237                  45-B                    22.838671595             100             130               0                 Open   ;
 1838                 1836                 237                     83.251326078             100             130               0                 Open   ;
 1839                 1836                 46-B                     78.47798495             100             130               0                 Open   ;
 1842                 1840                 1836                     257.6654366             100             130               0                 Open   ;
 1843                 1840                 44-B                    73.398197049             100             130               0                 Open   ;
 1845                 232                  1844                    200.18770087             100             130               0                 Open   ;
 1846                 1844                 1840                    109.07097525             100             130               0                 Open   ;
 1847                 1844                 30-B                    59.032291114             100             130               0                 Open   ;
 1850                 912                  1849                    100.20199772             400             130               0                 Open   ;
 1851                 1849                 1030                    902.75283628             400             130               0                 Open   ;
 1852                 183                  1849                    107.74232304             200             130               0                 Open   ;
 1855                 534                  87-B                     24.07565319             300             130               0                 Open   ;
 1861                 310                  34-A                    92.793904301             200             130               0                 Open   ;
 1862                 34-B                 311                      33.27596074             200             130               0                 Open   ;
 1867                 1333                 1866                    64.932290336             350             130               0                 Open   ;
 1868                 1866                 71-A                    25.916206951             350             130               0                 Open   ;
 1869                 71-B                 194                     79.242707629             300             130               0                 Open   ;
 1870                 896                  49-B                    39.122456301             400             130               0                 Open   ;
 1872                 1520                 100-A                   19.797920071             700             130               0                 Open   ;
 1874                 777                  94-A                    41.208369229             400             130               0                 Open   ;
 1875                 94-B                 760                     37.033319714             400             130               0                 Open   ;
 1876                 228                  99-A                      50.9572911             100             130               0                 Open   ;
 1878                 99-B                 37-B                    69.361475199             100             130               0                 Open   ;
 1880                 1067                 774                     652.40082323             400             130               0                 Open   ;
 1883                 621                  575                     394.97348306             300             130               0                 Open   ;
 1886                 1659                 1884                    20.602349156             400             130               0                 Open   ;
 1887                 1884                 777                      16.50567507             400             130               0                 Open   ;
 1890                 265                  255                     192.78445603             300             130               0                 Open   ;
 1894                 257                  260                     233.88411908             150             130               0                 Open   ;
 1895                 260                  269                     315.40445105             150             130               0                 Open   ;
 1898                 816                  1253                    665.97204821             500             130               0                 Open   ;
 1901                 867                  888                     38.327489709             250             130               0                 Open   ;
 1902                 1486                 1459                    79.469831285             700             130               0                 Open   ;
 1903                 1459                 1443                    52.022548822             700             130               0                 Open   ;
 1904                 1424                 80-A                    56.960940621             700             130               0                 Open   ;
 1906                 532                  642                     106.01882944             300             130               0                 Open   ;
 1907                 642                  668                     1125.2950299             300             130               0                 Open   ;
 1908                 1030                 972                     613.69954078             400             130               0                 Open   ;
 1909                 972                  939                     153.24681156             400             130               0                 Open   ;
 1911                 1245                 1233                    320.36611943             500             130               0                 Open   ;
 1912                 92-B                 534                     90.780029669             300             130               0                 Open   ;
 1915                 1277                 1245                    521.12011129             500             130               0                 Open   ;
 1916                 1236                 1178                    38.301216908             500             130               0                 Open   ;
 1917                 1178                 1237                    38.301216908             500             130               0                 Open   ;
 1921                 1918                 1920                    36.297290514             200             130               0                 Open   ;
 1922                 1920                 611                     88.060745587             200             130               0                 Open   ;
 1924                 1242                 1923                    186.19008505             500             130               0                 Open   ;
 1926                 1923                 185                     111.28591037             400             130               0                 Open   ;
 1927                 1318                 876                     89.764841489             600             130               0                 Open   ;
 1928                 876                  1291                    281.65581186             600             130               0                 Open   ;
 1929                 1784                 1348                    518.57674328             600             130               0                 Open   ;
 1930                 1348                 1331                    46.545008116             600             130               0                 Open   ;
 1935                 93-B                 188                     110.03504374             250             130               0                 Open   ;
 1936                 1448                 89-A                     91.93171682             700             130               0                 Open   ;
 1940                 555                  1571                    11.067893127             700             130               0                 Open   ;
 1943                 1372                 57-A                    28.227471201             900             130               0                 Open   ;
 1945                 1420                 1372                    45.878703126             700             130               0                 Open   ;
 1948                 68-B                 1250                    136.52622254             500             130               0                 Open   ;
 1949                 1250                 192                      606.0995749             400             130               0                 Open   ;
 1952                 899                  977                     44.672301294             400             130               0                 Open   ;
 1954                 1058                 311                     463.33737004             400             130               0                 Open   ;
 1955                 311                  1096                    433.21667387             400             130               0                 Open   ;
 1956                 1058                 1195                    73.371783459             400             130               0                 Open   ;
 1958                 1218                 1171                    76.532004441             500             130               0                 Open   ;
 1965                 829                  1001                    75.881874491             400             130               0                 Open   ;
 1966                 1080                 752                     283.11566371             400             130               0                 Open   ;
 1968                 926                  1669                    31.763982676             400             130               0                 Open   ;
 1970                 100-B                228                     24.341253691             700             130               0                 Open   ;
 1971                 228                  1659                    6.2441684623             400             130               0                 Open   ;
 1973                 841                  1079                    66.294192313             400             130               0                 Open   ;
 1974                 561                  1202                    4.1430069625             700             130               0                 Open   ;
 1975                 1202                 1414                    971.69616471             700             130               0                 Open   ;
 1976                 1113                 1163                    18.916102582             500             130               0                 Open   ;
 1977                 1163                 1192                    19.229392596             500             130               0                 Open   ;
 1978                 1414                 98-A                     15.13390516             500             130               0                 Open   ;
 1979                 98-B                 1159                    20.915277475             500             130               0                 Open   ;
 1980                 1208                 1063                    73.280916133             500             130               0                 Open   ;
 1984                 908                  1983                    615.56279976             400             130               0                 Open   ;
 1985                 1983                 896                     338.68934797             400             130               0                 Open   ;
 1986                 1983                 67-A                    39.697791888             150             130               0                 Open   ;
 1988                 67-B                 1987                    68.679015009             150             130               0                 Open   ;
 1990                 1060                 85-A                    137.93340632             400             130               0                 Open   ;
 1991                 85-B                 824                     20.294475006             400             130               0                 Open   ;
 1992                 780                  96-B                     15.74157456             400             130               0                 Open   ;
 1994                 827                  786                     5.6981165296             400             130               0                 Open   ;
 1995                 786                  780                        8.5728968             400             130               0                 Open   ;
 1996                 786                  86-A                    12.010238516             150             130               0                 Open   ;
 1997                 86-B                 787                     16.479155091             150             130               0                 Open   ;
 1998                 50-B                 787                     41.965077768             150             130               0                 Open   ;
 2001                 370                  38-B                    94.444840035             200             130               0                 Open   ;
 2005                 277                  297                     674.54822441             700             130               0                 Open   ;
 2006                 297                  1540                    684.12879817             700             130               0                 Open   ;
 2008                 291                  946                      94.57340251             400             130               0                 Open   ;
 2009                 82-B                 953                     514.19405289             400             130               0                 Open   ;
 2010                 953                  1110                    416.37083565             400             130               0                 Open   ;
 2011                 1110                 924                     772.04877301             400             130               0                 Open   ;
 2022                 1050                 1117                     512.5033591             400             130               0                 Open   ;
 2023                 1382                 1379                    1585.7692442             600             130               0                 Open   ;
 2048                 2521                 1382                    39.523505827             600             130               0                 Open   ;
 2051                 2521                 1565                    67.397080458             900             130               0                 Open   ;
 2055                 2521                 891                     57.084464789             400             130               0                 Open   ;
 2058                 224                  2057                    99.488661412             100             130               0                 Open   ;
 2059                 2057                 167                     40.099264286             100             130               0                 Open   ;
 2061                 1773                 2060                    102.97328152             200             130               0                 Open   ;
 2062                 2060                 167                     48.166417267             200             130               0                 Open   ;
 2064                 185                  2063                    27.075114334             200             130               0                 Open   ;
 2065                 2063                 1918                    134.46439287             200             130               0                 Open   ;
 2068                 2066                 635                     118.82163997             300             130               0                 Open   ;
 2070                 2066                 2069                    28.653133358             200             130               0                 Open   ;
 2071                 2069                 647                     115.65237527             200             130               0                 Open   ;
 2073                 290                  2072                     85.72727658             200             130               0                 Open   ;
 2074                 291                  2072                    94.489544744             200             130               0                 Open   ;
 2076                 1776                 2075                    76.794447035             200             130               0                 Open   ;
 2077                 2075                 162                     15.064174952             200             130               0                 Open   ;
 2082                 343                  2081                    50.966164246             200             130               0                 Open   ;
 2083                 2081                 208                     21.441739088             200             130               0                 Open   ;
 2095                 308                  355                     1479.5123986             200             130               0                 Open   ;
 2112                 644                  214                     58.532530331             300             130               0                 Open   ;
 2113                 1060                 96-A                    16.483424894             400             130               0                 Open   ;
 2114                 1923                 550                     74.409946838             500             130               0                 Open   ;
 2115                 550                  1277                    42.204523923             500             130               0                 Open   ;
 2118                 2116-B               720                     201.91139817             350             130               0                 Open   ;
 2130                 741                  2129                    48.974711621             400             130               0                 Open   ;
 2131                 2129                 807                     71.649724412             400             130               0                 Open   ;
 2132                 2129                 101-A                   56.020701417             500             130               0                 Open   ;
 2135                 83-A                 2134                    10.906536346             200             130               0                 Open   ;
 2139                 2134                 2138                    119.75286496             200             130               0                 Open   ;
 2141                 79-A                 2140                    84.517730664             200             130               0                 Open   ;
 2142                 2140                 458                     86.145358149             200             130               0                 Open   ;
 2146                 1231                 2145                    714.44574962             600             130               0                 Open   ;
 2147                 2145                 1343                    646.28885202             600             130               0                 Open   ;
 2148                 66-A                 2145                    13.413177662             700             130               0                 Open   ;
 2172                 738                  2171-A                  6.5722055918             400             130               0                 Open   ;
 2173                 2171-B               739                     7.5809828259             400             130               0                 Open   ;
 2180                 799                  2179-A                  32.399563897             400             130               0                 Open   ;
 2181                 2179-B               865                     4.3943054572             400             130               0                 Open   ;
 2189                 80-B                 2186                    9.4180176964             500             130               0                 Open   ;
 2192                 1233                 2191-A                  91.131319927             500             130               0                 Open   ;
 2193                 2191-B               2186                    4.4271929231             400             130               0                 Open   ;
 2195                 2186                 2194-A                  5.0185401007             400             130               0                 Open   ;
 2196                 2194-B               912                     24.472156377             400             130               0                 Open   ;
 2199                 209                  2198                    66.881679569             200             130               0                 Open   ;
 2207                 2198                 2206                    31.552753991             200             130               0                 Open   ;
 2208                 2206                 2200                    165.32824293             200             130               0                 Open   ;
 2213                 2211-B               2209                    16.422598268              40             130               0                 Open   ;
 2215                 2202                 2214-A                  54.400746968             200             130               0                 Open   ;
 2216                 2214-B               2204                    24.518152016             200             130               0                 Open   ;
 2221                 908                  824                     31.509336969             400             130               0                 Open   ;
 2223                 824                  2222                    17.264977553             400             130               0                 Open   ;
 2228                 611                  2227-A                  57.964572227             100             130               0                 Open   ;
 2229                 2227-B               2225                    17.449320332              50             130               0                 Open   ;
 2233                 1379                 2232                    696.77575226             600             130               0                 Open   ;
 2234                 2232                 1374                    797.12707645             600             130               0                 Open   ;
 2236                 2232                 2235                    112.95454327             150             130               0                 Open   ;
 2243                 2237                 2242-A                  40.984202549             100             130               0                 Open   ;
 2244                 2242-B               2240                     15.82752717             100             130               0                 Open   ;
 2246                 867                  865                     45.797214562             400             130               0                 Open   ;
 2249                 738                  844                     53.340867793             400             130               0                 Open   ;
 2251                 738                  42-B                    27.699937225             150             130               0                 Open   ;
 2258                 1581                 60-B                    1342.5136735             900             130               0                 Open   ;
 2259                 60-A                 555                     76.117652837             900             130               0                 Open   ;
 2267                 1002                 988                     812.31843503             400             130               0                 Open   ;
 2272                 169                  2271                    21.926536917             150             130               0                 Open   ;
 2275                 2273                 257                     239.21951195             150             130               0                 Open   ;
 2276                 2271                 2273                    120.57220654             150             130               0                 Open   ;
 2280                 2222                 2279                    28.342839534             400             130               0                 Open   ;
 2281                 2279                 208                     20.647894829             400             130               0                 Open   ;
 2282                 1390                 1419                    1137.6609149             700             130               0                 Open   ;
 2283                 1419                 1434                    18.273101001             700             130               0                 Open   ;
 2285                 2206                 2284                    18.175835727              40             130               0                 Open   ;
 2286                 2284                 2211-A                  59.219196148              40             130               0                 Open   ;
 2288                 2200                 2287                    62.910189414             200             130               0                 Open   ;
 2289                 2287                 2202                    84.231124955             200             130               0                 Open   ;
 2291                 2202                 2290                    130.70981799             200             130               0                 Open   ;
 2293                 2290                 2292                    71.108222945             200             130               0                 Open   ;
 2295                 2292                 2294                    288.24881585             200             130               0                 Open   ;
 2297                 2294                 2296                    188.02928012             200             130               0                 Open   ;
 2299                 1987                 2298                    73.211031684             150             130               0                 Open   ;
 2300                 2298                 202                     62.108557059             150             130               0                 Open   ;
 2325                 924                  2116-A                  439.98833498             350             130               0                 Open   ;
 2329                 291                  82-A                    173.75802505             400             130               0                 Open   ;
 2330                 1128                 946                     779.92008794             400             130               0                 Open   ;
 2336                 89-B                 1437                    42.652526683             700             130               0                 Open   ;
 2338                 1538                 1448                    513.34439515             700             130               0                 Open   ;
 2341                 1448                 93-A                    12.204967343             250             130               0                 Open   ;
 2342                 61-B                 1571                    45.920009813             900             130               0                 Open   ;
 2345                 1571                 1456                    84.813027747             700             130               0                 Open   ;
 2346                 1499                 1475                    212.47130099             700             130               0                 Open   ;
 2348                 69-B                 793                     28.462819202             400             130               0                 Open   ;
 2351                 1197                 68-A                    57.967342455             500             130               0                 Open   ;
 2353                 1197                 69-A                    162.63109357             400             130               0                 Open   ;
 2355                 1397                 1524                    662.15033104             700             130               0                 Open   ;
 2358                 1540                 1409                    418.96432659             700             130               0                 Open   ;
 2359                 1409                 1397                    8.8824347482             700             130               0                 Open   ;
 2362                 965                  899                     957.58373491             400             130               0                 Open   ;
 2367                 977                  70-A                    29.876929266             400             130               0                 Open   ;
 2368                 1506                 1439                    221.80303194             700             130               0                 Open   ;
 2372                 1581                 1610                    795.36585227             900             130               0                 Open   ;
 2375                 1312                 1372                    1208.7598512             600             130               0                 Open   ;
 2379                 2521                 1337                    83.812548997             600             130               0                 Open   ;
 2381                 1565                 1610                    340.17765024             900             130               0                 Open   ;
 2385                 2237                 458                     95.368864643             200             130               0                 Open   ;
 2389                 2138                 2388                    35.889947964             200             130               0                 Open   ;
 2390                 2388                 458                     36.837245119             200             130               0                 Open   ;
 2394                 2388                 2393-A                  57.858335345              50             130               0                 Open   ;
 2395                 2393-B               2391                    23.567464438              50             130               0                 Open   ;
 2400                 962                  1195                    332.01190905             400             130               0                 Open   ;
 2403                 1669                 2402                    7.2719955927             400             130               0                 Open   ;
 2404                 2402                 955                     137.98435487             250             130               0                 Open   ;
 2406                 40-A                 2405                    101.67414284             150             130               0                 Open   ;
 2409                 2405                 2408                    56.617025765             150             130               0                 Open   ;
 2410                 2408                 2382                    149.74130183             150             130               0                 Open   ;
 2412                 818                  2411                    67.492091652             350             130               0                 Open   ;
 2413                 2411                 977                     71.427700544             350             130               0                 Open   ;
 2424                 1475                 2423                     83.23559585             700             130               0                 Open   ;
 2425                 2423                 1513                    392.86671974             700             130               0                 Open   ;
 2427                 65-B                 2426                    16.044669393             700             130               0                 Open   ;
 2428                 2426                 1409                    45.434039845             700             130               0                 Open   ;
 2430                 1402                 2429                    297.14886088             700             130               0                 Open   ;
 2431                 2429                 1197                    578.27436718             700             130               0                 Open   ;
 2433                 752                  849                     5.5664308968             400             130               0                 Open   ;
 2434                 849                  829                      59.60634323             400             130               0                 Open   ;
 2461                 49-A                 2460                    18.026405334             400             130               0                 Open   ;
 2463                 31-A                 2462                    19.084991848             500             130               0                 Open   ;
 2465                 42-A                 2464                    13.346801365             150             130               0                 Open   ;
 2467                 37-A                 2466                    25.242645918             100             130               0                 Open   ;
 2469                 43-A                 2468                    18.959326567              50             130               0                 Open   ;
 2471                 33-A                 2470                    26.219571837             200             130               0                 Open   ;
 2473                 46-A                 2472                    21.610647643             100             130               0                 Open   ;
 2475                 44-A                 2474                    15.733281898             100             130               0                 Open   ;
 2477                 30-A                 2476                    18.083095753             100             130               0                 Open   ;
 2479                 35-A                 2478                    17.949100074             200             130               0                 Open   ;
 2481                 2480                 38-A                    22.023787261             200             130               0                 Open   ;
 2491                 1034                 2490-A                   168.1542368             400             130               0                 Open   ;
 2492                 2490-B               182                      24.97091293             400             130               0                 Open   ;
 2494                 745                  2493-A                  521.23341481             400             130               0                 Open   ;
 2495                 2493-B               182                     23.653434832             400             130               0                 Open   ;
 2498                 1547                 2497-A                  30.719938825             500             130               0                 Open   ;
 2500                 1142                 2499                    121.04510689             400             130               0                 Open   ;
 2501                 2499                 841                     912.99706976             400             130               0                 Open   ;
 2502                 2497-B               2499                    21.053535447             500             130               0                 Open   ;
 2507                 2506                 2504                    108.09662047             900             130               0                 Open   ;
 2523                 2504                 2521                    92.818173356             900             130               0                 Open   ;
 2524                 2519                 2521                    67.231801517             500             130               0                 Open   ;
 2540                 2506                 2519                    143.63012327             500             130               0                 Open   ;
 3082                 2519                 1387                    56.066052483             700             130               0                 Open   ;
 3084                 713                  3083                    27.789524741           152.4             130               0                 Open   ;

[PUMPS]
;ID                   Node1                Node2                Properties          

[VALVES]
;ID                   Node1                Node2                            Diameter Type              Setting           Minor Loss
 30                   30-A                 30-B                             150 TCV                0               0   ;
 31                   31-A                 31-B                             500 TCV                0               0   ;
 32                   32-A                 32-B                             150 TCV                0               0   ;
 33                   33-A                 33-B                             200 TCV                0               0   ;
 34                   34-A                 34-B                             200 TCV                0               0   ;
 35                   35-A                 35-B                             200 TCV                0               0   ;
 36                   36-A                 36-B                             400 TCV                0               0   ;
 37                   37-A                 37-B                             150 TCV                0               0   ;
 38                   38-A                 38-B                             200 TCV                0               0   ;
 39                   39-A                 39-B                             150 TCV                0               0   ;
 40                   40-A                 40-B                             150 TCV                0               0   ;
 41                   41-A                 41-B                             100 TCV                0               0   ;
 42                   42-A                 42-B                             150 TCV                0               0   ;
 43                   43-A                 43-B                             500 TCV                0               0   ;
 44                   44-A                 44-B                             150 TCV                0               0   ;
 45                   45-A                 45-B                             100 TCV                0               0   ;
 46                   46-A                 46-B                             150 TCV                0               0   ;
 49                   49-A                 49-B                             400 TCV                0               0   ;
 50                   50-A                 50-B                             150 TCV                0               0   ;
 52                   52-A                 52-B                             400 TCV                0               0   ;
 53                   53-A                 53-B                             600 TCV                0               0   ;
 54                   54-A                 54-B                             700 TCV                0               0   ;
 55                   55-A                 55-B                             500 TCV                0               0   ;
 56                   56-A                 56-B                             300 TCV                0               0   ;
 57                   57-A                 57-B                             900 TCV                0               0   ;
 58                   58-A                 58-B                             700 TCV                0               0   ;
 59                   59-A                 59-B                             200 TCV                0               0   ;
 60                   60-A                 60-B                             900 TCV                0               0   ;
 61                   61-A                 61-B                             900 TCV                0               0   ;
 62                   62-A                 62-B                             300 TCV                0               0   ;
 63                   63-A                 63-B                             400 TCV                0               0   ;
 64                   64-A                 64-B                             200 TCV                0               0   ;
 65                   65-A                 65-B                             700 TCV                0               0   ;
 66                   66-A                 66-B                             700 TCV                0               0   ;
 67                   67-A                 67-B                             150 TCV                0               0   ;
 68                   68-A                 68-B                             500 TCV                0               0   ;
 69                   69-A                 69-B                             400 TCV                0               0   ;
 70                   70-A                 70-B                             400 TCV                0               0   ;
 71                   71-A                 71-B                             350 TCV                0               0   ;
 74                   74-A                 74-B                             400 TCV                0               0   ;
 76                   76-A                 76-B                             400 TCV                0               0   ;
 77                   77-A                 77-B                             400 TCV                0               0   ;
 79                   79-A                 79-B                             200 TCV                0               0   ;
 80                   80-A                 80-B                             500 TCV                0               0   ;
 82                   82-A                 82-B                             400 TCV                0               0   ;
 83                   83-A                 83-B                             500 TCV                0               0   ;
 84                   84-A                 84-B                             500 TCV                0               0   ;
 85                   85-A                 85-B                             400 TCV                0               0   ;
 86                   86-A                 86-B                             150 TCV                0               0   ;
 87                   87-A                 87-B                             300 TCV                0               0   ;
 88                   88-A                 88-B                             300 TCV                0               0   ;
 89                   89-A                 89-B                             700 TCV                0               0   ;
 90                   90-A                 90-B                             400 TCV                0               0   ;
 91                   91-A                 91-B                             400 TCV                0               0   ;
 92                   92-A                 92-B                             300 TCV                0               0   ;
 93                   93-A                 93-B                             400 TCV                0               0   ;
 94                   94-A                 94-B                             400 TCV                0               0   ;
 96                   96-A                 96-B                             400 TCV                0               0   ;
 97                   97-A                 97-B                             400 TCV                0               0   ;
 98                   98-A                 98-B                             500 TCV                0               0   ;
 99                   99-A                 99-B                             100 TCV                0               0   ;
 100                  100-A                100-B                            700 TCV                0               0   ;
 101                  101-A                101-B                            500 TCV                0               0   ;
 102                  102-A                102-B                            700 TCV                0               0   ;
 103                  103-A                103-B                            500 TCV                0               0   ;
 104                  104-A                104-B                            150 TCV                0               0   ;
 2116                 2116-A               2116-B                           350 TCV                0               0   ;
 2171                 2171-A               2171-B                           400 TCV                0               0   ;
 2179                 2179-A               2179-B                           400 TCV                0               0   ;
 2191                 2191-A               2191-B                           400 TCV                0               0   ;
 2194                 2194-A               2194-B                           400 TCV                0               0   ;
 2211                 2211-A               2211-B                            40 TCV                0               0   ;
 2214                 2214-A               2214-B                            80 TCV                0               0   ;
 2227                 2227-A               2227-B                            50 TCV                0               0   ;
 2242                 2242-A               2242-B                           100 TCV                0               0   ;
 2393                 2393-A               2393-B                            50 TCV                0               0   ;
 2490                 2490-A               2490-B                           400 TCV                0               0   ;
 2493                 2493-A               2493-B                           400 TCV                0               0   ;
 2497                 2497-A               2497-B                           500 TCV                0               0   ;

[TAGS]
;type      name       tag       

[DEMANDS]
;ID        Demand     Pattern   
161        0.20285747201165819 2446      
161        0.4868579328279803 2441      
162        13.361545598025238 2439      
162        0.1622850038934615 2483      
162        3.056386019832966 2484      
169        0.04057149440233163 2441      
169        1.0277895533953876 2483      
172        0.7438108389000659 2440      
172        0.2434289664139896 2441      
175        7.14058301481037 2439      
175        8.452394775343082 2486      
176        0.013523939658095665 2440      
176        1.1900972773257126 2486      
176        0.02704755474423608 2483      
182        0.2163814116697542 2440      
182        31.091288651844163 2439      
182        0.06761904914656772 2483      
182        1.974479286056153 2485      
183        5.328389706363546 2439      
183        0.04057149440233163 2483      
185        24.82975457422698 2439      
185        0.04057149440233163 2441      
185        1.4876213532281812 2484      
192        0.08114298880466327 2446      
192        0.013524913373961282 2484      
194        3.326862540991194 2446      
194        0.6220963556930705 2445      
194        1.0548588544606234 2441      
194        0.02704755474423608 2485      
195        26.614900327929597 2439      
195        0.6220963556930705 2442      
196        3.2592434918446234 2439      
196        2.0150507804584823 2443      
204        0.12171448320699539 2441      
204        1.4200023040816105 2484      
206        1.6499073308374974 2440      
206        3.6649584358679492 2442      
207        0.013523939658095665 2446      
207        0.297524400474417 2440      
207        0.08114298880466327 2441      
208        0.05409543406042731 2440      
208        0.12171448320699539 2487      
208        1.365906870021182 2441      
293        0.4868579328279803 2441      
293        0.7573367259898924 2483      
310        0.3110480155605575 2440      
310        0.12171448320699539 2487      
310        0.378667389279081 2483      
310        0.013521667654409071 2485      
382        0.06772745617961078 2483      
382        0.8520013824489653 2484      
603        6.437343670312642 2439      
603        5.301341827047347 2484      
611        0.7843823333023973 2446      
611        0.20285747201165819 2440      
615        4.070673379891263 2440      
615        0.5003818724860751 2441      
615        0.10819054354889934 2483      
713        24.085943842435658 2439      
713        0.22990502675589472 2484      
713        0.2840004608163222 2485      
888        0.013523939658095665 2445      
888        17.391647158942227 2439      
888        3.0428620801748782 2443      
888        0.013523939658095665 2483      
1244       1.0548588544606234 2440      
1244       1.609335836435168 2442      
1244       0.6761914651815425 2483      
1249       0.05409543406042731 2440      
1249       17.77031454822123 2439      
1249       1.3118117605327115 2487      
1249       0.5139054875722157 2485      
2072       2.4883850982003244 2439      
2072       5.084960739949559 2483      
2464       0.013524913373961282 2483      
2464       0.05387894456629644 2484      
2474       0.297524400474417 2440      
2474       0.2704765211582261 2483      

[STATUS]
;ID        Setting   
66         Closed    
87         Closed    
2493       Closed    
2497       Closed    

[PATTERNS]
;ID        Multipliers

2439 0.616000 0.508830 0.614460 0.619990 0.535810 0.566970
2439 0.480650 0.863500 1.226950 1.395930 1.294570 1.051440
2439 1.067730 1.305670 1.126090 1.289130 1.174590 1.375630
2439 1.091220 1.127010 1.135650 1.170660 1.202030 1.159500

2440 0.652000 0.659640 0.619370 0.607370 0.629390 0.621730
2440 0.682070 0.877860 1.207550 1.208950 1.187460 1.366670
2440 1.270020 1.388810 1.211100 1.099060 1.204720 1.283930
2440 1.317800 1.126570 1.050020 1.018250 0.952760 0.756680

2441 0.285000 0.320000 0.340000 0.300000 0.280000 0.360000
2441 0.400000 1.380000 1.583000 2.158000 1.152000 1.245000
2441 0.791000 1.713000 2.517000 2.340000 1.282000 1.043000
2441 1.033000 1.078000 0.926000 0.713000 0.475000 0.285000

2442 0.551000 0.530010 0.657450 0.484780 0.481460 0.497060
2442 0.624280 1.476350 1.132380 1.669290 1.251870 1.349550
2442 1.338120 1.316880 1.412960 1.147260 0.854040 1.374280
2442 1.264830 1.165550 0.660250 1.182170 0.975950 0.602400

2443 0.604000 0.592310 0.537160 0.545190 0.562780 0.594280
2443 0.847230 1.255890 1.429340 1.366880 1.307670 1.256990
2443 1.217170 1.181100 1.169470 1.126580 1.182260 1.260060
2443 1.265060 1.139300 1.059380 0.939900 0.843940 0.716420

2445 0.799000 0.549140 0.596970 0.640390 0.594120 0.689430
2445 0.811640 0.795040 1.056710 1.021410 1.266770 1.136550
2445 1.298080 1.432250 1.082260 1.065510 0.928460 1.345030
2445 1.217250 1.063310 1.709130 1.084990 0.890690 0.925510

2446 1.000000 1.000000 1.000000 1.000000 1.000000 1.000000
2446 1.000000 1.000000 1.000000 1.000000 1.000000 1.000000
2446 1.000000 1.000000 1.000000 1.000000 1.000000 1.000000
2446 1.000000 1.000000 1.000000 1.000000 1.000000 1.000000

2483 0.706000 0.211000 0.421000 0.211000 0.421000 0.421000
2483 0.632000 0.632000 1.053000 2.105000 1.895000 0.842000
2483 0.842000 0.842000 1.053000 0.632000 1.263000 2.526000
2483 1.263000 1.263000 1.053000 1.263000 1.474000 1.263000

2484 0.916000 0.901000 0.901000 0.900000 0.910000 0.932000
2484 0.986000 1.052000 1.055000 1.038000 1.069000 1.060000
2484 1.026000 1.007000 1.023000 1.092000 1.099000 1.059000
2484 1.052000 1.020000 1.003000 0.967000 0.980000 0.951000

2485 0.286000 0.429000 0.429000 0.429000 0.643000 0.500000
2485 0.500000 0.929000 1.500000 1.571000 1.857000 2.000000
2485 1.071000 1.214000 1.214000 1.357000 1.214000 1.357000
2485 1.286000 2.000000 0.857000 0.714000 0.286000 0.357000

2486 0.616000 0.509000 0.614000 0.620000 0.536000 0.567000
2486 0.481000 0.864000 1.227000 1.396000 1.295000 1.051000
2486 1.068000 1.306000 1.126000 1.289000 1.175000 1.376000
2486 1.091000 1.127000 1.136000 1.171000 1.202000 1.160000

2487 0.545000 0.445000 0.425000 0.380000 0.360000 0.540000
2487 0.650000 0.845000 0.945000 0.945000 1.136000 1.236000
2487 1.336000 1.136000 1.036000 0.845000 0.825000 1.091000
2487 1.636000 1.636000 1.636000 2.189000 1.091000 1.091000

2516 0.944000 0.995225 1.046294 1.047540 1.052522 1.028856
2516 1.008927 0.931700 1.015155 0.996471 1.025119 0.981524
2516 1.003944 1.027611 1.002699 1.010172 1.010172 0.982769
2516 1.001453 1.002699 0.971559 0.964086 0.998962 0.950384

2517 0.950000 1.005209 1.055220 1.055220 1.062721 1.040217
2517 1.015212 0.930194 0.995207 0.980204 1.017712 0.980204
2517 1.002709 1.032715 1.005209 1.007710 1.010210 0.977704
2517 0.997708 1.000208 0.970202 0.960200 0.995207 0.952698

[CURVES]
;ID         X-Value      Y-Value     

[CONTROLS]

[RULES]

[ENERGY]
GLOBAL PRICE           0.0000

[EMITTERS]
;ID        Flow coefficient

[QUALITY]

[SOURCES]
;Node      Type       Quality    Pattern   

[REACTIONS]
;Type           Pipe/Tank               Coefficient

 ORDER BULK 1
 ORDER TANK 1
 ORDER WALL 1
 GLOBAL BULK 0.0000    
 GLOBAL WALL 0.0000    

[MIXING]
;Tank ID             Model Fraction

[TIMES]
DURATION             24:00:00
HYDRAULIC TIMESTEP   01:00:00
QUALITY TIMESTEP     00:00:01
PATTERN TIMESTEP     01:00:00
PATTERN START        00:00:00
REPORT TIMESTEP      01:00:00
REPORT START         00:00:00
START CLOCKTIME      00:00:00 AM
RULE TIMESTEP        00:06:00
STATISTIC            NONE      

[REPORT]

[OPTIONS]
UNITS                LPS                 
HEADLOSS             H-W                 
SPECIFIC GRAVITY     0.998
VISCOSITY            1
TRIALS               40
ACCURACY             0.001
CHECKFREQ            2
MAXCHECK             10
UNBALANCED           STOP                
DEMAND MULTIPLIER    1
EMITTER EXPONENT     0.5
QUALITY              NONE                
DIFFUSIVITY          1
TOLERANCE            0.01

[COORDINATES]
;Node      X-Coord    Y-Coord   
 161              11706.917        4874.644        
 162              10045.576        2167.688        
 165              11148.544        3756.617        
 167              10720.321        1963.698        
 169              12535.016        3373.838        
 172              11470.938        4961.934        
 175              12111.984        6178.722        
 176              12194.023        3391.873        
 177              17404.909        5166.165        
 179              13037.381        5376.380        
 180              11874.533        4537.434        
 181              12386.483        4038.993        
 182              12081.197        4186.696        
 183              11287.549        3375.536        
 184              11720.457        4566.657        
 185              10270.237        3780.023        
 186              6803.583         6008.616        
 188              7738.059         3851.174        
 189              7774.647         6049.501        
 191              8778.620         3593.838        
 192              8156.032         5180.744        
 194              12156.203        5064.202        
 195              2581.531         4364.615        
 196              2127.935         5120.667        
 200              3806.442         3895.718        
 202              10605.093        5376.257        
 204              11786.406        6934.832        
 206              11023.112        4984.632        
 207              10704.620        4687.020        
 208              10548.205        4930.862        
 209              10261.564        5029.402        
 212              9294.143         3548.181        
 214              10558.357        6528.958        
 215              12000.092        6850.916        
 219              12575.116        4739.581        
 224              10699.575        1825.668        
 226              10838.924        1801.232        
 228              11855.348        6388.006        
 232              10850.161        1847.156        
 237              11493.185        1751.294        
 245              11636.522        5069.515        
 248              11596.792        4892.022        
 251              12452.871        3625.074        
 255              12593.669        3482.365        
 257              12821.142        3349.023        
 260              13024.596        3233.662        
 265              12424.129        3574.136        
 269              13298.694        3077.617        
 277              7041.531         5642.304        
 282              3891.913         3882.670        
 290              4059.939         5286.188        
 291              3981.423         5373.279        
 293              13294.152        6397.550        
 297              7702.522         5776.864        
 304              6911.973         6024.839        
 307              13311.625        6588.829        
 308              13471.872        6530.752        
 310              13054.739        5828.639        
 311              12936.471        5872.301        
 319              17412.647        5185.932        
 334              4033.904         5029.424        
 343              10565.758        4878.742        
 355              14872.872        6055.195        
 356              15841.934        5726.765        
 358              7658.321         6017.734        
 369              11007.713        4859.920        
 370              10901.597        4864.281        
 382              14844.864        5970.369        
 393              16068.931        5650.750        
 416              13250.689        6416.106        
 458              13082.182        6446.423        
 525              12563.764        4305.311        
 526              12566.018        4304.425        
 529              12568.338        4324.256        
 531              10650.128        1201.533        
 532              10651.837        1197.385        
 534              10329.572        3553.809        
 543              12283.922        3386.732        
 547              12370.884        3672.190        
 550              10338.463        3665.918        
 555              7185.742         5063.628        
 561              10532.887        6341.864        
 567              10562.525        1180.241        
 568              10548.941        1125.603        
 570              7217.653         4973.603        
 575              12572.439        4326.966        
 579              10548.338        6587.967        
 584              12835.981        5181.331        
 585              12754.672        5212.270        
 603              10276.454        38.186          
 607              10501.299        6581.353        
 611              10259.436        3560.587        
 615              7135.785         4938.344        
 621              12688.287        4704.568        
 635              12767.905        4950.822        
 639              10479.366        6802.623        
 640              10347.503        6756.670        
 642              10626.118        1094.534        
 644              10522.852        6482.423        
 647              12775.744        4982.403        
 668              10364.803        0.000           
 697              12476.277        4010.190        
 712              112.136          5020.507        
 713              27.626           5011.371        
 717              107.104          5055.074        
 720              1474.414         5147.375        
 727              1323.710         5158.257        
 736              11933.422        6339.693        
 738              11922.682        6353.046        
 739              11936.398        6349.613        
 741              11357.251        4130.461        
 744              11486.705        4138.596        
 745              11538.121        4142.401        
 752              11920.549        6738.632        
 753              11930.293        6763.848        
 759              11876.481        6292.314        
 760              11878.110        6295.784        
 774              11558.386        4950.219        
 775              11452.849        4510.705        
 777              11889.868        6373.072        
 780              10473.665        4725.654        
 786              10467.193        4720.032        
 787              10445.139        4730.756        
 790              11919.974        6678.073        
 793              8997.318         4925.070        
 799              12098.654        6275.990        
 807              11477.634        4137.999        
 809              11498.149        4530.374        
 813              11593.257        4512.356        
 815              11924.297        6309.172        
 816              11934.660        6305.416        
 818              9394.061         4761.827        
 824              10508.334        4904.373        
 827              10462.855        4716.337        
 829              11984.940        6728.570        
 841              11505.463        6622.526        
 844              11871.097        6366.619        
 849              11926.057        6737.827        
 862              12072.639        6207.193        
 865              12085.253        6241.724        
 867              12127.412        6223.837        
 872              9501.065         3758.707        
 873              9504.990         3821.970        
 875              9437.526         3648.558        
 876              9435.806         3621.186        
 879              9506.781         3849.675        
 885              11782.357        6983.879        
 888              12163.732        6211.593        
 891              5461.485         6218.989        
 896              10519.126        5859.791        
 899              9507.986         4832.536        
 903              9387.550         4834.813        
 908              10476.896        4906.488        
 912              11209.858        3505.429        
 917              10879.096        2559.686        
 924              2114.274         5198.498        
 926              11944.064        6826.749        
 939              10794.220        1785.051        
 941              11884.464        4458.304        
 942              11875.518        4417.298        
 946              4074.619         5389.364        
 948              10264.316        5096.160        
 952              3303.417         5206.259        
 953              3298.365         5299.797        
 955              11974.789        7001.082        
 956              11923.804        6996.116        
 962              13183.487        6704.868        
 965              9451.856         3876.599        
 967              9500.013         3645.467        
 972              10828.838        1934.336        
 977              9463.335         4833.912        
 979              11866.867        6222.625        
 983              11582.779        5605.735        
 988              12884.545        6799.506        
 996              9397.390         4914.793        
 1001             12059.901        6716.784        
 1002             12072.233        6802.839        
 1011             11683.309        4495.022        
 1026             11783.879        4476.762        
 1030             10970.434        2531.477        
 1034             12088.521        4379.682        
 1047             9737.327         5902.745        
 1048             9620.311         5902.844        
 1050             5476.777         6098.048        
 1058             13077.743        6313.576        
 1060             10494.695        4746.735        
 1063             9707.531         6048.918        
 1067             11713.086        5584.013        
 1079             11569.952        6637.890        
 1080             11640.879        6782.664        
 1096             12807.184        5458.826        
 1110             2883.628         5262.953        
 1113             10507.136        6274.483        
 1117             4965.541         6062.031        
 1121             10301.328        5837.274        
 1123             9593.574         5131.227        
 1128             4838.415         5231.594        
 1136             10390.222        3786.492        
 1142             10499.301        6384.039        
 1148             11424.182        4216.747        
 1153             11705.374        5369.830        
 1154             11700.880        5368.430        
 1159             9562.738         6169.233        
 1163             10525.814        6277.478        
 1168             11426.683        4227.038        
 1171             13162.410        6345.676        
 1173             11650.121        5156.138        
 1178             10030.644        3603.290        
 1180             9575.231         6174.373        
 1188             11645.174        5085.231        
 1192             10545.024        6278.340        
 1195             13094.384        6385.036        
 1197             8953.566         5110.946        
 1202             10528.862        6340.883        
 1208             9638.669         6023.856        
 1210             11435.998        4266.883        
 1214             11630.260        5072.518        
 1215             11580.698        4847.964        
 1217             13253.076        6352.134        
 1218             13229.617        6309.065        
 1220             13778.503        6060.364        
 1221             13810.213        6122.743        
 1231             9489.892         6161.302        
 1233             11221.186        3624.617        
 1236             9992.596         3607.679        
 1237             10068.693        3598.900        
 1242             10078.141        3677.899        
 1244             10887.636        3521.709        
 1245             10901.219        3640.620        
 1249             8780.927         5026.953        
 1250             8759.949         5129.355        
 1253             11776.642        5658.462        
 1269             10039.034        6280.677        
 1277             10380.630        3664.125        
 1281             11467.247        4390.853        
 1291             9717.379         3614.356        
 1306             11648.698        5115.115        
 1312             5771.800         5490.250        
 1317             9348.444         3646.687        
 1318             9346.067         3623.363        
 1320             12623.968        5011.845        
 1329             8059.155         5931.913        
 1331             9353.602         3711.739        
 1333             12039.608        5019.233        
 1334             12585.700        4886.199        
 1337             5441.069         6124.531        
 1343             8151.139         5919.422        
 1348             9307.073         3712.985        
 1365             5775.646         6130.818        
 1372             6976.117         5593.797        
 1374             3927.877         4468.921        
 1379             5416.964         4588.432        
 1382             5378.822         6173.743        
 1387             5458.414         6243.303        
 1390             5829.061         5584.819        
 1397             8792.113         5998.083        
 1402             8828.492         5961.790        
 1409             8783.301         5996.967        
 1411             11902.015        6556.792        
 1412             11906.980        6564.373        
 1414             9578.804         6136.963        
 1419             6963.038         5676.295        
 1420             6970.142         5639.285        
 1422             11886.221        6556.975        
 1424             11134.117        3552.096        
 1429             11446.810        4485.831        
 1432             11565.352        4796.288        
 1434             6981.242         5677.891        
 1437             7920.311         3786.685        
 1439             5818.399         6236.910        
 1443             11247.238        3677.177        
 1448             7849.637         3901.021        
 1453             11149.234        3678.536        
 1456             7279.415         5043.510        
 1459             11259.465        3727.743        
 1461             11547.826        6512.432        
 1462             11578.932        6567.291        
 1468             7023.022         5475.948        
 1475             7254.340         5713.305        
 1480             11321.610        3981.262        
 1481             11301.857        3895.678        
 1486             11279.029        3804.767        
 1496             11421.434        4379.357        
 1497             11397.276        4282.979        
 1499             7044.373         5680.777        
 1506             5596.957         6249.566        
 1513             7703.879         5850.262        
 1520             11867.023        6430.555        
 1522             11421.215        6546.335        
 1524             9442.140         6124.207        
 1538             7530.198         4302.868        
 1540             8371.204         5921.419        
 1547             10630.041        6362.619        
 1565             5453.394         6152.100        
 1571             7196.253         5060.161        
 1581             5798.140         5358.500        
 1610             5793.568         6153.853        
 1634             11643.930        5106.563        
 1640             11642.630        5126.654        
 1643             11642.236        5118.581        
 1646             10709.746        4785.825        
 1659             11853.838        6381.947        
 1662             10540.836        4788.873        
 1669             11949.752        6857.999        
 1771             10106.874        1944.154        
 1773             10662.974        1872.371        
 1776             10121.161        2143.106        
 1784             8788.998         3735.793        
 1798             11859.957        4462.194        
 1802             11705.434        4490.977        
 1836             11410.843        1763.564        
 1840             11155.763        1799.975        
 1844             11047.651        1814.405        
 1849             11184.933        3408.377        
 1866             12052.723        5082.827        
 1884             11873.814        6376.906        
 1918             10235.591        3649.612        
 1920             10271.842        3647.769        
 1923             10264.113        3668.906        
 1983             10501.658        5521.553        
 1987             10535.709        5445.551        
 2057             10715.025        1923.950        
 2060             10673.454        1974.809        
 2063             10243.433        3783.848        
 2066             12658.750        4997.765        
 2069             12668.156        5024.831        
 2072             3974.510         5279.043        
 2075             10044.960        2152.636        
 2081             10569.607        4929.563        
 2129             11406.161        4132.972        
 2134             13149.744        6322.790        
 2138             13046.318        6383.154        
 2140             13161.368        6412.502        
 2145             8789.534         6020.124        
 2186             11197.413        3532.116        
 2198             10194.686        5028.667        
 2200             10030.143        4989.059        
 2202             9950.217         4932.947        
 2204             9940.011         5011.202        
 2206             10195.275        4997.119        
 2209             10266.879        4972.027        
 2222             10525.570        4905.377        
 2225             10297.138        3625.898        
 2232             4722.077         4537.162        
 2235             4727.158         4650.002        
 2237             12995.337        6485.831        
 2240             13020.658        6536.660        
 2271             12553.681        3362.332        
 2273             12613.158        3467.213        
 2279             10527.744        4933.636        
 2284             10191.591        4979.321        
 2287             10034.184        4926.279        
 2290             9820.095         4945.333        
 2292             9828.731         5015.915        
 2294             9540.610         5024.467        
 2296             9545.785         5212.425        
 2298             10608.557        5438.269        
 2382             12151.392        5622.995        
 2388             13063.933        6414.424        
 2391             12984.108        6430.200        
 2402             11950.962        6865.170        
 2405             11978.989        5586.252        
 2408             12002.385        5637.808        
 2411             9461.549         4762.507        
 2423             7320.702         5763.546        
 2426             8797.419         5953.782        
 2429             8793.706         5666.685        
 2460             10576.210        5857.729        
 2462             10518.154        6312.072        
 2464             11934.282        6392.417        
 2466             11715.541        6428.494        
 2468             10044.108        3647.261        
 2470             16041.656        5557.445        
 2472             11395.610        1664.643        
 2474             11141.382        1712.034        
 2476             11035.681        1738.237        
 2478             15838.955        5639.745        
 2480             10875.916        4977.878        
 2499             10616.905        6412.698        
 2504             5350.530         6274.692        
 2519             5408.297         6268.436        
 2521             5407.239         6201.213        
 3083             0.000            5008.359        
 30-A             11039.067        1756.000        
 30-B             11039.067        1756.000        
 31-A             10522.976        6293.606        
 31-B             10522.976        6293.606        
 32-A             12781.658        3258.084        
 32-B             12781.658        3258.084        
 33-A             16048.997        5582.616        
 33-B             16048.997        5582.616        
 34-A             12967.729        5860.887        
 34-B             12967.729        5860.887        
 35-A             15838.546        5657.689        
 35-B             15838.546        5657.689        
 36-A             12082.680        6235.361        
 36-B             12082.680        6235.361        
 37-A             11739.676        6421.099        
 37-B             11739.676        6421.099        
 38-A             10881.163        4956.488        
 38-B             10881.163        4956.488        
 39-A             12988.245        3141.040        
 39-B             12988.245        3141.040        
 40-A             11885.993        5627.356        
 40-B             11885.993        5627.356        
 41-A             10727.059        1818.903        
 41-B             10727.059        1818.903        
 42-A             11930.333        6379.668        
 42-B             11930.333        6379.668        
 43-A             10037.828        3629.371        
 43-B             10037.828        3629.371        
 44-A             11143.181        1727.664        
 44-B             11143.181        1727.664        
 45-A             11496.612        1773.874        
 45-B             11496.612        1773.874        
 46-A             11398.727        1686.027        
 46-B             11398.727        1686.027        
 49-A             10558.244        5859.208        
 49-B             10558.244        5859.208        
 50-A             10403.186        4731.730        
 50-B             10403.186        4731.730        
 52-A             11514.069        4140.006        
 52-B             11514.069        4140.006        
 53-A             11684.306        5102.753        
 53-B             11684.306        5102.753        
 54-A             11582.852        4859.689        
 54-B             11582.852        4859.689        
 55-A             10537.673        6303.392        
 55-B             10537.673        6303.392        
 56-A             10529.941        6365.352        
 56-B             10529.941        6365.352        
 57-A             6983.012         5566.425        
 57-B             6983.012         5566.425        
 58-A             6967.395         5651.705        
 58-B             6967.395         5651.705        
 59-A             7038.478         5653.123        
 59-B             7038.478         5653.123        
 60-A             7111.857         5081.930        
 60-B             7111.857         5081.930        
 61-A             7176.236         5101.489        
 61-B             7176.236         5101.489        
 62-A             7204.955         5011.065        
 62-B             7204.955         5011.065        
 63-A             11462.255        4538.938        
 63-B             11462.255        4538.938        
 64-A             7700.311         5807.676        
 64-B             7700.311         5807.676        
 65-A             8812.050         5960.366        
 65-B             8812.050         5960.366        
 66-A             8788.688         6006.737        
 66-B             8788.688         6006.737        
 67-A             10540.640        5514.052        
 67-B             10540.640        5514.052        
 68-A             8895.904         5116.887        
 68-B             8895.904         5116.887        
 69-A             8988.307         4952.069        
 69-B             8988.307         4952.069        
 70-A             9433.479         4832.813        
 70-B             9433.479         4832.813        
 71-A             12078.357        5079.014        
 71-B             12078.357        5079.014        
 74-A             11568.574        4516.400        
 74-B             11568.574        4516.400        
 76-A             11922.087        6703.828        
 76-B             11922.087        6703.828        
 77-A             11925.757        6753.417        
 77-B             11925.757        6753.417        
 79-A             13238.419        6377.769        
 79-B             13238.419        6377.769        
 80-A             11188.510        3535.188        
 80-B             11188.510        3535.188        
 82-A             3811.052         5339.142        
 82-B             3811.052         5339.142        
 83-A             13154.950        6332.374        
 83-B             13154.950        6332.374        
 84-A             13125.910        6367.507        
 84-B             13125.910        6367.507        
 85-A             10506.475        4884.164        
 85-B             10506.475        4884.164        
 86-A             10461.618        4730.670        
 86-B             10461.618        4730.670        
 87-A             10328.005        3529.784        
 87-B             10328.005        3529.784        
 88-A             12359.748        3624.883        
 88-B             12359.748        3624.883        
 89-A             7895.279         3821.219        
 89-B             7895.279         3821.219        
 90-A             9504.798         3799.626        
 90-B             9504.798         3799.626        
 91-A             10395.116        3801.263        
 91-B             10395.116        3801.263        
 92-A             10337.405        3644.250        
 92-B             10337.405        3644.250        
 93-A             7838.168         3896.846        
 93-B             7838.168         3896.846        
 94-A             11882.101        6332.602        
 94-B             11882.101        6332.602        
 96-A             10488.257        4731.561        
 96-B             10488.257        4731.561        
 97-A             11954.474        6330.935        
 97-B             11954.474        6330.935        
 98-A             9571.921         6150.442        
 98-B             9571.921         6150.442        
 99-A             11806.195        6401.446        
 99-B             11806.195        6401.446        
 100-A            11862.369        6411.313        
 100-B            11862.369        6411.313        
 101-A            11418.569        4187.602        
 101-B            11418.569        4187.602        
 102-A            11570.694        4805.715        
 102-B            11570.694        4805.715        
 103-A            11648.199        5147.540        
 103-B            11648.199        5147.540        
 104-A            11630.536        5128.827        
 104-B            11630.536        5128.827        
 2116-A           1675.698         5163.273        
 2116-B           1675.698         5163.273        
 2171-A           11928.975        6351.150        
 2171-B           11928.975        6351.150        
 2179-A           12086.912        6245.793        
 2179-B           12086.912        6245.793        
 2191-A           11197.862        3536.520        
 2191-B           11197.862        3536.520        
 2194-A           11198.966        3527.344        
 2194-B           11198.966        3527.344        
 2211-A           10250.517        4973.439        
 2211-B           10250.517        4973.439        
 2214-A           9942.984         4986.865        
 2214-B           9942.984         4986.865        
 2227-A           10288.241        3610.887        
 2227-B           10288.241        3610.887        
 2242-A           13014.285        6522.172        
 2242-B           13014.285        6522.172        
 2393-A           13007.457        6426.999        
 2393-B           13007.457        6426.999        
 2490-A           12082.018        4211.654        
 2490-B           12082.018        4211.654        
 2493-A           12057.676        4184.195        
 2493-B           12057.676        4184.195        
 2497-A           10622.217        6392.326        
 2497-B           10622.217        6392.326        
 2506             5313.324         6376.184        

[VERTICES]
;Link      X-Coord    Y-Coord   

[LABELS]

[BACKDROP]
 DIMENSIONS      0.000            0.000            17412.647        7001.082        
UNITS    NONE

[END]

