[TITLE]

[JUNCTIONS]
 J1                                   40.1825
 J2                                   31.0835
 J3                                   25.3602
 J4                                   20.1339
 J5                                   25.3118
 J6                                   19.6383
 J7                                   38.9693
 J8                                   21.8343
 J9                                   19.1665
 J10                                  28.6399
 J11                                  25.0060
 J12                                  39.1136
 J13                                  38.6982
 J14                                  17.7594
 J15                                   6.9312
 J16                                  38.9499
 J17                                   0.0000
 J18                                  28.9958
 J19                                  27.8709
 J20                                  28.6727
 J21                                  30.4801
 J22                                  11.5200
 J23                                  33.3934
 J24                                   5.7704
 J25                                   3.0769
 J26                                  42.7019
 J27                                  31.5376
 J28                                  37.9679
 J29                                  33.6017
 J30                                  36.7871
 J31                                  13.7341
 J32                                  35.7558
 J33                                  33.2942
 J34                                  11.0184
 J35                                  24.9339
 J36                                  19.1799
 J37                                  30.1616
 J38                                  22.6860
 J39                                  27.9875
 J40                                  24.9945
 J41                                  28.5566
 J42                                  26.1675
 J43                                  30.0052
 J44                                  20.3966
 J45                                  37.3641
 J46                                  25.9073
 J47                                   4.6288
 J48                                  45.2193
 J49                                  21.1553
 J50                                  25.0663
 J51                                  28.3518
 J52                                  22.7719
 J53                                  34.5298
 J54                                  36.3332
 J55                                  26.5391
 J56                                  23.2816
 J57                                   5.5815
 J58                                  31.1891
 J59                                   7.7574
 J60                                  31.0148
 J61                                  24.9594
 J62                                  23.6413
 J63                                  15.2880
 J64                                  34.3378
 J65                                  26.7351
 J66                                  29.2148
 J67                                  41.6418
 J68                                  17.6987
 J69                                  26.1996
 J70                                  19.2259
 J71                                  21.2796
 J72                                  28.1895
 J73                                  21.7466
 J74                                  41.9095
 J75                                  25.3893
 J76                                  26.6740
 J77                                  21.1781
 J78                                  21.4079
 J79                                  28.8105
 J80                                  22.4186
 J81                                  30.1807
 J82                                  39.4928
 J83                                  30.6366
 J84                                  27.9084
 J85                                  37.9357
 J86                                  29.4992
 J87                                  23.1806
 J88                                  35.6254
 J89                                  23.9810
 J90                                  26.8148
 J91                                   2.7786
 J92                                  28.4168
 J93                                  29.8781
 J94                                  37.1532
 J95                                  35.8030
 J96                                  24.4652
 J97                                  39.9441
 J98                                  26.6522
 J99                                  38.4531

[RESERVOIRS]
 R1                                   99.5088                                
 R2                                  101.2358                                

[TANKS]

[PIPES]
 PS1                             R1                              J1                                   50.0000     800.0000     140.0000       0.0000       
 PS2                             R2                              J74                                  50.0000     800.0000     140.0000       0.0000       
 P1                              J1                              J12                                 164.9542     100.0000     107.8887       0.0000       
 P2                              J1                              J82                                 229.5378      80.0000     110.9547       0.0000       
 P3                              J1                              J85                                 172.4965      80.0000     109.3453       0.0000       
 P4                              J1                              J94                                 206.6187     125.0000     138.3320       0.0000       
 P5                              J2                              J30                                 198.4447      80.0000     105.9882       0.0000       
 P6                              J3                              J61                                 209.9215      80.0000     136.3326       0.0000       
 P7                              J3                              J62                                 225.9304      80.0000     114.0942       0.0000       
 P8                              J3                              J66                                 152.1480     100.0000     127.6884       0.0000       
 P9                              J3                              J80                                 151.0632      80.0000     129.8041       0.0000       
 P10                             J4                              J44                                 223.0782      80.0000     107.6617       0.0000       
 P11                             J4                              J52                                 173.0773      80.0000     124.2859       0.0000       
 P12                             J4                              J96                                 177.1466      80.0000     120.4550       0.0000       
 P13                             J5                              J61                                 233.5824      80.0000     105.1037       0.0000       
 P14                             J5                              J79                                 151.7662      80.0000     109.9184       0.0000       
 P15                             J6                              J69                                 189.1998      80.0000     104.1520       0.0000       
 P16                             J6                              J77                                 149.1773      80.0000     138.2074       0.0000       
 P17                             J7                              J16                                 171.1397      80.0000     137.3377       0.0000       
 P18                             J7                              J28                                 160.4920     125.0000     105.4419       0.0000       
 P19                             J7                              J74                                 156.8644     125.0000     129.5308       0.0000       
 P20                             J8                              J44                                 144.6461      80.0000     107.8568       0.0000       
 P21                             J8                              J62                                 142.9795      80.0000     138.0109       0.0000       
 P22                             J8                              J71                                 161.6968      80.0000     108.0379       0.0000       
 P23                             J8                              J72                                 145.0268      80.0000     120.1254       0.0000       
 P24                             J9                              J11                                 152.9543      80.0000     128.4843       0.0000       
 P25                             J9                              J73                                 147.6069      80.0000     112.5021       0.0000       
 P26                             J10                             J61                                 140.6113      80.0000     121.3236       0.0000       
 P27                             J10                             J81                                 144.0997      80.0000     112.4225       0.0000       
 P28                             J10                             J93                                 161.2881      80.0000     133.2931       0.0000       
 P29                             J11                             J53                                 213.4448     100.0000     111.2244       0.0000       
 P30                             J12                             J97                                 155.9136     100.0000     105.9987       0.0000       
 P31                             J13                             J16                                 154.0131     250.0000     130.3879       0.0000       
 P32                             J13                             J92                                 284.8085     250.0000     112.3332       0.0000       
 P33                             J14                             J35                                 196.5329      80.0000     113.9589       0.0000       
 P34                             J14                             J68                                 232.5559      80.0000     117.9881       0.0000       
 P35                             J15                             J25                                 185.6711      80.0000     121.4721       0.0000       
 P36                             J15                             J34                                 168.3170     100.0000     138.0050       0.0000       
 P37                             J15                             J46                                 207.4970      80.0000     131.9089       0.0000       
 P38                             J15                             J59                                 203.3105     100.0000     110.4311       0.0000       
 P39                             J16                             J48                                 263.3078     300.0000     122.5864       0.0000       
 P40                             J16                             J99                                 165.6252     150.0000     136.8752       0.0000       
 P41                             J17                             J47                                 137.1116      80.0000     115.7281       0.0000       
 P42                             J17                             J91                                 181.3800      80.0000     101.3750       0.0000       
 P43                             J18                             J56                                 294.5631      80.0000     119.4880       0.0000       
 P44                             J18                             J70                                 268.7159     125.0000     107.7780       0.0000       
 P45                             J18                             J84                                 299.6093      80.0000     105.9170       0.0000       
 P46                             J18                             J87                                 168.0310     125.0000     130.2187       0.0000       
 P47                             J19                             J37                                 163.6604      80.0000     107.0869       0.0000       
 P48                             J19                             J45                                 203.6402      80.0000     111.0553       0.0000       
 P49                             J19                             J63                                 203.3042      80.0000     139.7779       0.0000       
 P50                             J19                             J88                                 225.2419      80.0000     136.6936       0.0000       
 P51                             J20                             J40                                 149.0963      80.0000     105.3096       0.0000       
 P52                             J20                             J55                                 172.0956      80.0000     120.6481       0.0000       
 P53                             J20                             J76                                 226.8958      80.0000     139.1540       0.0000       
 P54                             J20                             J79                                 253.1570      80.0000     113.2253       0.0000       
 P55                             J21                             J52                                 162.8122      80.0000     120.4409       0.0000       
 P56                             J21                             J60                                 248.6522      80.0000     117.7484       0.0000       
 P57                             J21                             J82                                 260.2280      80.0000     137.6312       0.0000       
 P58                             J21                             J89                                 164.8298      80.0000     111.6916       0.0000       
 P59                             J22                             J34                                 232.3613      80.0000     100.3864       0.0000       
 P60                             J22                             J63                                 165.2242      80.0000     107.6039       0.0000       
 P61                             J23                             J33                                 148.1747     100.0000     126.5382       0.0000       
 P62                             J23                             J66                                 146.2185     100.0000     103.2506       0.0000       
 P63                             J23                             J72                                 215.8630      80.0000     103.5721       0.0000       
 P64                             J23                             J95                                 137.5428     125.0000     126.4850       0.0000       
 P65                             J24                             J70                                 147.8491      80.0000     126.9807       0.0000       
 P66                             J25                             J47                                 184.1738      80.0000     110.6741       0.0000       
 P67                             J25                             J59                                 200.1827      80.0000     105.3069       0.0000       
 P68                             J26                             J30                                 251.9382      80.0000     115.0839       0.0000       
 P69                             J26                             J74                                 141.1195      80.0000     119.6531       0.0000       
 P70                             J27                             J33                                 177.2023      80.0000     136.0256       0.0000       
 P71                             J27                             J93                                 136.0524      80.0000     130.3267       0.0000       
 P72                             J28                             J94                                 134.6158     125.0000     112.6303       0.0000       
 P73                             J29                             J38                                 202.1477      80.0000     112.8302       0.0000       
 P74                             J29                             J43                                 136.8167      80.0000     119.7192       0.0000       
 P75                             J29                             J83                                 137.2971      80.0000     137.1304       0.0000       
 P76                             J31                             J36                                 219.3599      80.0000     122.3559       0.0000       
 P77                             J31                             J50                                 184.0423      80.0000     127.9019       0.0000       
 P78                             J32                             J54                                 163.8975      80.0000     120.3048       0.0000       
 P79                             J32                             J95                                 152.9215      80.0000     119.3595       0.0000       
 P80                             J33                             J66                                 191.1946      80.0000     116.3633       0.0000       
 P81                             J34                             J37                                 206.9731      80.0000     100.2823       0.0000       
 P82                             J35                             J36                                 133.6737      80.0000     133.8014       0.0000       
 P83                             J36                             J50                                 180.1225     100.0000     138.6170       0.0000       
 P84                             J37                             J64                                 233.0105      80.0000     135.8675       0.0000       
 P85                             J38                             J57                                 241.0575      80.0000     137.1860       0.0000       
 P86                             J39                             J58                                 128.6464     100.0000     103.7479       0.0000       
 P87                             J39                             J70                                 190.3139     100.0000     136.7670       0.0000       
 P88                             J39                             J75                                 155.7663      80.0000     111.6529       0.0000       
 P89                             J40                             J76                                 203.8847      80.0000     113.7993       0.0000       
 P90                             J40                             J80                                 165.6891      80.0000     103.7878       0.0000       
 P91                             J41                             J81                                 206.4706      80.0000     105.0988       0.0000       
 P92                             J42                             J71                                 172.3336      80.0000     138.4769       0.0000       
 P93                             J42                             J76                                 148.4324      80.0000     114.7861       0.0000       
 P94                             J43                             J73                                 146.9536      80.0000     105.5573       0.0000       
 P95                             J44                             J89                                 186.2650     200.0000     134.4428       0.0000       
 P96                             J44                             J90                                 252.5985     200.0000     135.2426       0.0000       
 P97                             J45                             J88                                 251.7944      80.0000     139.1686       0.0000       
 P98                             J45                             J98                                 169.5841      80.0000     116.7901       0.0000       
 P99                             J46                             J64                                 158.4708      80.0000     129.1994       0.0000       
 P100                            J48                             J74                                 215.1208     150.0000     121.7455       0.0000       
 P101                            J49                             J52                                 189.6061      80.0000     119.6141       0.0000       
 P102                            J49                             J60                                 188.4740      80.0000     120.4121       0.0000       
 P103                            J49                             J69                                 311.8619      80.0000     103.2047       0.0000       
 P104                            J49                             J87                                 227.9065      80.0000     108.4670       0.0000       
 P105                            J50                             J84                                 169.6905      80.0000     104.5941       0.0000       
 P106                            J50                             J90                                 182.9079     125.0000     100.4424       0.0000       
 P107                            J51                             J55                                 144.1507      80.0000     122.1902       0.0000       
 P108                            J52                             J87                                 282.9316     125.0000     118.0022       0.0000       
 P109                            J52                             J89                                 186.4945     125.0000     139.9847       0.0000       
 P110                            J53                             J69                                 163.7999      80.0000     107.3283       0.0000       
 P111                            J53                             J97                                 177.2840     100.0000     110.0068       0.0000       
 P112                            J54                             J67                                 158.7109      80.0000     109.5176       0.0000       
 P113                            J56                             J59                                 214.6732     125.0000     114.7828       0.0000       
 P114                            J56                             J84                                 143.1733     125.0000     121.3774       0.0000       
 P115                            J57                             J75                                 208.3627      80.0000     129.8854       0.0000       
 P116                            J57                             J91                                 179.2936      80.0000     104.4022       0.0000       
 P117                            J58                             J65                                 174.3861      80.0000     106.0844       0.0000       
 P118                            J60                             J69                                 312.0034      80.0000     129.0711       0.0000       
 P119                            J60                             J85                                 199.0095      80.0000     131.4961       0.0000       
 P120                            J62                             J66                                 168.0625      80.0000     121.6717       0.0000       
 P121                            J63                             J68                                 228.1092      80.0000     129.4041       0.0000       
 P122                            J65                             J73                                 168.3237      80.0000     126.2892       0.0000       
 P123                            J71                             J76                                 215.8338      80.0000     113.8885       0.0000       
 P124                            J72                             J92                                 140.5479      80.0000     109.2717       0.0000       
 P125                            J72                             J95                                 231.5967      80.0000     102.2708       0.0000       
 P126                            J73                             J78                                 178.3878      80.0000     132.1519       0.0000       
 P127                            J75                             J91                                 222.9450      80.0000     131.6727       0.0000       
 P128                            J81                             J86                                 134.5106      80.0000     132.0659       0.0000       
 P129                            J84                             J90                                 132.5533     125.0000     131.8499       0.0000       
 P130                            J84                             J96                                 155.1017      80.0000     115.6871       0.0000       
 P131                            J86                             J93                                 289.7115      80.0000     105.1032       0.0000       
 P132                            J89                             J92                                 156.7045     250.0000     104.7939       0.0000       
 P133                            J95                             J99                                 190.5662     150.0000     133.2349       0.0000       

[PUMPS]

[VALVES]

[DEMANDS]
 J1                                    0.939943                                
 J2                                    0.780239                                
 J3                                    0.332944                                
 J4                                    0.950964                                
 J5                                    0.300542                                
 J6                                    0.161137                                
 J7                                    0.599510                                
 J8                                    0.378484                                
 J9                                    0.256015                                
 J10                                   1.282720                                
 J11                                   0.885129                                
 J12                                   0.805373                                
 J13                                   0.664305                                
 J14                                   0.356253                                
 J15                                   1.352116                                
 J16                                   0.239740                                
 J17                                   0.418040                                
 J18                                   1.126009                                
 J19                                   1.012839                                
 J20                                   0.354707                                
 J21                                   0.471790                                
 J22                                   1.635862                                
 J23                                   0.352249                                
 J24                                   0.244451                                
 J25                                   0.308197                                
 J26                                   0.254493                                
 J27                                   0.162807                                
 J28                                   0.243623                                
 J29                                   0.453414                                
 J30                                   0.137612                                
 J31                                   1.064437                                
 J32                                   0.066039                                
 J33                                   0.352371                                
 J34                                   0.466267                                
 J35                                   0.922221                                
 J36                                   5.211081                                
 J37                                   0.289355                                
 J38                                   1.086165                                
 J39                                   0.151491                                
 J40                                   0.386434                                
 J41                                   0.769953                                
 J42                                   0.216929                                
 J43                                   0.672889                                
 J44                                   1.122815                                
 J45                                   0.862513                                
 J46                                   0.245516                                
 J47                                   0.656928                                
 J48                                   0.698755                                
 J49                                   0.099828                                
 J50                                   0.676423                                
 J51                                   0.921548                                
 J52                                   0.172515                                
 J53                                   0.143002                                
 J54                                   0.890397                                
 J55                                   0.689087                                
 J56                                   0.713013                                
 J57                                   1.333827                                
 J58                                   5.910231                                
 J59                                   0.982071                                
 J60                                   0.335154                                
 J61                                   1.600231                                
 J62                                   0.165288                                
 J63                                   0.229047                                
 J64                                   0.283204                                
 J65                                   1.455000                                
 J66                                   0.435765                                
 J67                                   0.196387                                
 J68                                   0.620312                                
 J69                                   0.575000                                
 J70                                   0.107285                                
 J71                                   0.577825                                
 J72                                   1.536665                                
 J73                                   0.408815                                
 J74                                   0.282369                                
 J75                                   0.422805                                
 J76                                   0.390979                                
 J77                                   0.223813                                
 J78                                   0.193271                                
 J79                                   0.457770                                
 J80                                   0.586540                                
 J81                                   0.171927                                
 J82                                   0.428821                                
 J83                                   0.161719                                
 J84                                   0.481925                                
 J85                                   0.238689                                
 J86                                   0.632220                                
 J87                                   0.580769                                
 J88                                   0.583098                                
 J89                                   1.048700                                
 J90                                   0.335911                                
 J91                                   0.290060                                
 J92                                   0.874120                                
 J93                                   2.020187                                
 J94                                   0.915823                                
 J95                                   0.420810                                
 J96                                   0.113650                                
 J97                                   0.581697                                
 J98                                   0.567434                                
 J99                                   0.986206                                

[EMITTERS]

[STATUS]

[PATTERNS]

[CURVES]

[CONTROLS]

[RULES]

[QUALITY]

[SOURCES]

[MIXING]

[REACTIONS]
 ORDER  BULK            1.00
 ORDER  WALL            1
 ORDER  TANK            1.00
 GLOBAL BULK            0.000000
 GLOBAL WALL            0.000000

[ENERGY]
 GLOBAL EFFIC        75.0000
 DEMAND CHARGE       0.0000

[TIMES]
 DURATION            0:00:00
 HYDRAULIC TIMESTEP  1:00:00
 QUALITY TIMESTEP    0:06:00
 REPORT TIMESTEP     1:00:00
 REPORT START        0:00:00
 PATTERN TIMESTEP    1:00:00
 PATTERN START       0:00:00
 RULE TIMESTEP       0:06:00
 START CLOCKTIME     0:00:00
 STATISTIC           NONE

[OPTIONS]
 UNITS               LPS
 PRESSURE            METERS
 HEADLOSS            H-W
 UNBALANCED          STOP
 QUALITY             NONE
 DEMAND MULTIPLIER   1.0000
 EMITTER EXPONENT    0.5000
 VISCOSITY           1.000000
 DIFFUSIVITY         1.000000
 SPECIFIC GRAVITY    1.000000
 TRIALS              500
 ACCURACY            0.00000001
 TOLERANCE           0.01000000
 CHECKFREQ           2
 MAXCHECK            10
 DAMPLIMIT           0.00000000

[REPORT]
 PAGESIZE            0
 STATUS              NO
 SUMMARY             YES
 ENERGY              NO
 MESSAGES            YES
 NODES               NONE
 LINKS               NONE
 Elevation           NO
 Demand              PRECISION 2
 Head                PRECISION 2
 Pressure            PRECISION 2
 Quality             PRECISION 2
 Length              NO
 Diameter            NO
 Flow                PRECISION 2
 Velocity            PRECISION 2
 Headloss            PRECISION 2
 Quality             NO
 State               NO
 Setting             NO
 Reaction            NO

[COORDINATES]
 J1                                  300.936817     592.822799
 J2                                   12.355706      45.379126
 J3                                 1228.004113     400.994432
 J4                                  763.747555     810.697997
 J5                                 1588.773271     434.135690
 J6                                  316.578083    1047.775661
 J7                                  436.924070     264.311129
 J8                                  984.934214     606.748649
 J9                                  138.233571    1116.028334
 J10                                1410.155281     234.558032
 J11                                  50.920579    1027.717242
 J12                                 145.164324     597.063034
 J13                                 608.026640     388.481949
 J14                                1458.555955    1020.594136
 J15                                1089.748428    1463.206171
 J16                                 595.022922     261.078615
 J17                                 719.392171    1654.311679
 J18                                 706.687500    1133.205324
 J19                                1498.698591    1385.342915
 J20                                1503.339338     696.360398
 J21                                 640.170685     623.005340
 J22                                1356.424334    1278.066900
 J23                                 972.916679     302.835655
 J24                                 763.169411    1459.442206
 J25                                 946.124914    1516.767299
 J26                                 390.088169      20.853272
 J27                                1177.629794     146.774834
 J28                                 334.291918     356.212597
 J29                                 130.428197    1488.710044
 J30                                 173.697593      65.653470
 J31                                1105.980641    1200.921279
 J32                                 896.828018     181.887441
 J33                                1039.608595     196.880402
 J34                                1221.108597    1409.940742
 J35                                1291.971115     957.678946
 J36                                1246.395426    1070.276244
 J37                                1398.664660    1493.174814
 J38                                 236.916175    1616.408262
 J39                                 520.364084    1359.094045
 J40                                1410.924625     604.602153
 J41                                1614.686396     216.333073
 J42                                1188.968179     799.842726
 J43                                 170.166239    1365.735671
 J44                                 926.740550     724.161956
 J45                                1581.524676    1532.182601
 J46                                1191.578376    1609.235167
 J47                                 844.720677    1644.430530
 J48                                 601.069660      11.783797
 J49                                 503.571021     873.260693
 J50                                1088.174894    1050.632424
 J51                                1661.311189     761.120635
 J52                                 629.293288     765.076792
 J53                                 114.736234     864.399965
 J54                                 972.354464      47.601257
 J55                                1548.587848     834.465211
 J56                                 947.055127    1159.264057
 J57                                 426.673313    1652.803498
 J58                                 418.591193    1297.944360
 J59                                 980.265939    1332.588119
 J60                                 439.305163     735.956759
 J61                                1406.506656     363.851653
 J62                                1063.876641     517.493675
 J63                                1486.378784    1223.124127
 J64                                1311.072392    1670.065353
 J65                                 285.559257    1249.602286
 J66                                1092.398189     364.436432
 J67                                 840.308847       7.197279
 J68                                1639.309376    1100.772904
 J69                                 246.316663     912.701794
 J70                                 690.755990    1359.846389
 J71                                1123.513034     654.781419
 J72                                 934.696384     483.989607
 J73                                 143.335691    1241.296499
 J74                                 465.517459     117.898631
 J75                                 431.073872    1458.016252
 J76                                1298.977693     749.405305
 J77                                 438.159308    1056.073818
 J78                                  19.618481    1312.623583
 J79                                1670.720744     540.664146
 J80                                1313.839499     507.796026
 J81                                1469.566727     126.322978
 J82                                 466.048866     508.637386
 J83                                  11.676052    1461.031916
 J84                                 939.331002    1024.719602
 J85                                 254.230483     723.852430
 J86                                1399.490303      28.179884
 J87                                 624.928725    1009.662329
 J88                                1679.317194    1355.007157
 J89                                 768.906918     662.507168
 J90                                1005.503092     923.328717
 J91                                 573.532327    1599.040721
 J92                                 823.349312     546.755702
 J93                                1274.410363     230.035962
 J94                                 237.364741     426.468730
 J95                                 848.445960     297.243149
 J96                                 825.657038     941.027811
 J97                                  80.277628     715.711626
 J98                                1622.729135    1673.118671
 J99                                 723.375982     188.843183
 R1                                  250.936817     542.822799
 R2                                  415.517459      67.898631

[VERTICES]

[END]
