[TITLE]

[JUNCTIONS]
 J1                                    9.0588
 J2                                   14.8847
 J3                                    8.5586
 J4                                   12.2135
 J5                                   10.1958
 J6                                    8.3900
 J7                                    8.5185
 J8                                    5.2697
 J9                                   10.7135
 J10                                   8.3541
 J11                                   2.8167
 J12                                   4.2243
 J13                                   0.0925
 J14                                   7.2015
 J15                                  14.8281
 J16                                  13.3759
 J17                                   8.8490
 J18                                   1.4508
 J19                                  15.3195
 J20                                   1.0662
 J21                                   4.4601
 J22                                  14.3136
 J23                                  11.0172
 J24                                   7.9549
 J25                                   4.1046
 J26                                   8.0476
 J27                                   5.8556
 J28                                   0.0000
 J29                                  12.2909
 J30                                   1.2346
 J31                                   1.1680
 J32                                   8.0293
 J33                                   8.5929
 J34                                  10.5175
 J35                                   6.1541
 J36                                  15.7756
 J37                                   8.5307
 J38                                  11.0397
 J39                                   9.8936
 J40                                   3.2617
 J41                                   6.4301
 J42                                  14.0959
 J43                                   6.0796
 J44                                  10.1411
 J45                                   7.9232
 J46                                  12.5483
 J47                                   9.6264
 J48                                   5.0459
 J49                                   5.1796
 J50                                   8.0297
 J51                                   7.1577
 J52                                   2.3438
 J53                                  12.9509
 J54                                  11.9473
 J55                                   6.5637
 J56                                  10.4761
 J57                                   9.5967
 J58                                   6.2983
 J59                                  11.3603
 J60                                  11.2750
 J61                                   3.7820
 J62                                  13.6771
 J63                                   9.6027
 J64                                  11.6161
 J65                                   9.2436
 J66                                   8.1385
 J67                                   8.4175
 J68                                   5.9537
 J69                                  12.8034
 J70                                  12.7406
 J71                                   4.9357
 J72                                  13.1145
 J73                                   9.0508
 J74                                  15.3850
 J75                                  11.0213
 J76                                  13.8887
 J77                                   8.5029
 J78                                  10.8741
 J79                                   2.5975
 J80                                   9.1742
 J81                                  11.5681
 J82                                   4.5195
 J83                                   1.0719
 J84                                  13.3344
 J85                                  14.0073
 J86                                  10.6069
 J87                                  14.9626
 J88                                  16.4905
 J89                                   2.6659
 J90                                   6.1107
 J91                                   4.5893
 J92                                  11.6360
 J93                                  10.9306
 J94                                   9.0601
 J95                                   8.9198
 J96                                  10.3985
 J97                                   9.8649

[RESERVOIRS]
 R1                                   84.2066                                

[TANKS]

[PIPES]
 PS1                             R1                              J88                                  50.0000     800.0000     140.0000       0.0000       
 P1                              J1                              J81                                 172.6593      80.0000     106.8391       0.0000       
 P2                              J2                              J36                                 156.2835     200.0000     125.9624       0.0000       
 P3                              J2                              J74                                 150.7310     150.0000     122.8145       0.0000       
 P4                              J2                              J94                                 150.6044      80.0000     104.3246       0.0000       
 P5                              J3                              J14                                 199.4063      80.0000     119.9869       0.0000       
 P6                              J4                              J61                                 182.3570      80.0000     111.5877       0.0000       
 P7                              J4                              J81                                 130.3517      80.0000     125.0695       0.0000       
 P8                              J4                              J92                                 167.7038      80.0000     130.9893       0.0000       
 P9                              J5                              J41                                 223.9101     150.0000     107.1815       0.0000       
 P10                             J5                              J48                                 155.2544     150.0000     132.6641       0.0000       
 P11                             J6                              J67                                 261.4614      80.0000     137.8684       0.0000       
 P12                             J7                              J48                                 243.2168      80.0000     113.7200       0.0000       
 P13                             J7                              J53                                 298.7013      80.0000     139.3408       0.0000       
 P14                             J7                              J69                                 309.5618     100.0000     120.7607       0.0000       
 P15                             J7                              J77                                 282.2061     125.0000     129.6035       0.0000       
 P16                             J7                              J84                                 176.4484      80.0000     119.2400       0.0000       
 P17                             J8                              J58                                 135.4187      80.0000     121.0316       0.0000       
 P18                             J8                              J67                                 275.3610      80.0000     102.7180       0.0000       
 P19                             J8                              J90                                 213.8635      80.0000     135.7665       0.0000       
 P20                             J9                              J14                                 155.0390     125.0000     101.6910       0.0000       
 P21                             J9                              J62                                 224.7297     125.0000     106.2797       0.0000       
 P22                             J10                             J60                                 290.3605      80.0000     120.2372       0.0000       
 P23                             J10                             J95                                 174.8611      80.0000     125.9971       0.0000       
 P24                             J11                             J21                                 154.5093      80.0000     112.2724       0.0000       
 P25                             J11                             J33                                 238.9833      80.0000     129.6346       0.0000       
 P26                             J11                             J52                                 165.7193      80.0000     101.2201       0.0000       
 P27                             J11                             J82                                 151.7873      80.0000     138.2655       0.0000       
 P28                             J11                             J96                                 202.2900      80.0000     122.1871       0.0000       
 P29                             J12                             J13                                 185.4022      80.0000     138.9427       0.0000       
 P30                             J12                             J16                                 226.3119      80.0000     105.4663       0.0000       
 P31                             J12                             J31                                 200.4160      80.0000     122.9853       0.0000       
 P32                             J13                             J27                                 194.5737      80.0000     131.9251       0.0000       
 P33                             J13                             J61                                 163.3770      80.0000     113.4419       0.0000       
 P34                             J14                             J50                                 150.6639     125.0000     113.3468       0.0000       
 P35                             J15                             J42                                 181.6885      80.0000     115.5680       0.0000       
 P36                             J15                             J96                                 162.7602      80.0000     133.8432       0.0000       
 P37                             J16                             J47                                 201.3154     125.0000     113.9729       0.0000       
 P38                             J16                             J59                                 153.6986      80.0000     101.6657       0.0000       
 P39                             J16                             J92                                 231.2777     125.0000     114.1878       0.0000       
 P40                             J17                             J26                                 194.7490      80.0000     115.2746       0.0000       
 P41                             J17                             J67                                 169.9250      80.0000     100.0173       0.0000       
 P42                             J18                             J20                                 211.5744      80.0000     119.4812       0.0000       
 P43                             J18                             J40                                 145.6974      80.0000     138.6486       0.0000       
 P44                             J18                             J57                                 218.5478      80.0000     122.0673       0.0000       
 P45                             J18                             J89                                 144.4923      80.0000     136.4321       0.0000       
 P46                             J19                             J36                                 191.6290     200.0000     125.2743       0.0000       
 P47                             J19                             J85                                 150.5474     200.0000     133.0291       0.0000       
 P48                             J19                             J94                                 306.7723      80.0000     114.0527       0.0000       
 P49                             J20                             J30                                 174.6051      80.0000     105.2020       0.0000       
 P50                             J21                             J47                                 184.4369     125.0000     124.5425       0.0000       
 P51                             J21                             J52                                 151.9596      80.0000     137.4207       0.0000       
 P52                             J21                             J96                                 188.4847     150.0000     111.6235       0.0000       
 P53                             J22                             J76                                 177.2221      80.0000     121.7299       0.0000       
 P54                             J22                             J88                                 225.9396      80.0000     107.9135       0.0000       
 P55                             J23                             J25                                 285.2574      80.0000     133.2745       0.0000       
 P56                             J23                             J93                                 178.2404      80.0000     127.8968       0.0000       
 P57                             J24                             J64                                 145.1134      80.0000     103.5490       0.0000       
 P58                             J24                             J73                                 197.1010      80.0000     133.3040       0.0000       
 P59                             J24                             J80                                 222.4869      80.0000     106.2345       0.0000       
 P60                             J25                             J79                                 144.3602     100.0000     103.2086       0.0000       
 P61                             J25                             J89                                 205.5341      80.0000     119.2590       0.0000       
 P62                             J25                             J97                                 155.4585      80.0000     132.3378       0.0000       
 P63                             J26                             J44                                 240.8158      80.0000     129.5731       0.0000       
 P64                             J27                             J31                                 320.4426      80.0000     106.0338       0.0000       
 P65                             J27                             J37                                 330.9416      80.0000     112.5743       0.0000       
 P66                             J27                             J38                                 224.9771      80.0000     132.2575       0.0000       
 P67                             J28                             J45                                 172.0452      80.0000     112.7507       0.0000       
 P68                             J28                             J71                                 182.6701      80.0000     120.9666       0.0000       
 P69                             J28                             J83                                 211.0526      80.0000     121.5969       0.0000       
 P70                             J29                             J62                                 178.7689      80.0000     124.8634       0.0000       
 P71                             J30                             J39                                 181.9532      80.0000     134.4215       0.0000       
 P72                             J30                             J40                                 279.2699      80.0000     119.4789       0.0000       
 P73                             J31                             J47                                 234.7045      80.0000     127.6108       0.0000       
 P74                             J32                             J94                                 198.4942      80.0000     125.9474       0.0000       
 P75                             J33                             J46                                 163.6744      80.0000     119.3918       0.0000       
 P76                             J33                             J52                                 169.9950      80.0000     102.3562       0.0000       
 P77                             J33                             J69                                 217.7550      80.0000     124.9160       0.0000       
 P78                             J33                             J82                                 199.4257      80.0000     113.7945       0.0000       
 P79                             J34                             J43                                 157.7903     150.0000     132.7128       0.0000       
 P80                             J34                             J74                                 173.6919     150.0000     125.6464       0.0000       
 P81                             J35                             J38                                 217.5397      80.0000     136.8074       0.0000       
 P82                             J35                             J83                                 148.1076      80.0000     122.3742       0.0000       
 P83                             J36                             J41                                 302.6724     100.0000     121.7927       0.0000       
 P84                             J37                             J46                                 200.2326      80.0000     118.9406       0.0000       
 P85                             J37                             J52                                 233.6666      80.0000     126.9078       0.0000       
 P86                             J38                             J63                                 215.7510      80.0000     103.0990       0.0000       
 P87                             J39                             J40                                 273.4382      80.0000     118.4377       0.0000       
 P88                             J39                             J81                                 140.5988      80.0000     116.7718       0.0000       
 P89                             J41                             J50                                 227.8370     200.0000     127.2599       0.0000       
 P90                             J41                             J77                                 231.1257     125.0000     123.8962       0.0000       
 P91                             J42                             J47                                 233.8016      80.0000     109.5522       0.0000       
 P92                             J42                             J68                                 232.2674      80.0000     101.1672       0.0000       
 P93                             J43                             J68                                 204.1878     125.0000     118.9798       0.0000       
 P94                             J43                             J91                                 150.0280     100.0000     106.0445       0.0000       
 P95                             J44                             J84                                 259.7595     100.0000     129.8151       0.0000       
 P96                             J44                             J95                                 193.4576      80.0000     136.4464       0.0000       
 P97                             J45                             J61                                 246.6689      80.0000     107.4416       0.0000       
 P98                             J45                             J71                                 222.4897      80.0000     103.1889       0.0000       
 P99                             J45                             J81                                 202.1295      80.0000     130.5868       0.0000       
 P100                            J46                             J60                                 183.4874      80.0000     127.5380       0.0000       
 P101                            J46                             J69                                 259.3924      80.0000     114.7112       0.0000       
 P102                            J48                             J65                                 132.3655     150.0000     110.2058       0.0000       
 P103                            J49                             J55                                 177.1711      80.0000     134.2779       0.0000       
 P104                            J49                             J56                                 193.3286      80.0000     109.8469       0.0000       
 P105                            J49                             J91                                 179.9400      80.0000     128.5787       0.0000       
 P106                            J50                             J86                                 221.9622     250.0000     118.9780       0.0000       
 P107                            J51                             J75                                 216.3016      80.0000     131.7793       0.0000       
 P108                            J51                             J80                                 358.4240      80.0000     125.3226       0.0000       
 P109                            J51                             J93                                 161.5056      80.0000     119.3943       0.0000       
 P110                            J53                             J69                                 138.7843      80.0000     107.2917       0.0000       
 P111                            J53                             J95                                 169.3852      80.0000     121.9161       0.0000       
 P112                            J54                             J55                                 177.3335      80.0000     121.3348       0.0000       
 P113                            J56                             J70                                 233.3694      80.0000     128.6267       0.0000       
 P114                            J56                             J72                                 170.2258      80.0000     120.0852       0.0000       
 P115                            J57                             J78                                 189.6399      80.0000     116.3137       0.0000       
 P116                            J57                             J97                                 234.7424      80.0000     108.6165       0.0000       
 P117                            J58                             J67                                 259.9820      80.0000     124.0752       0.0000       
 P118                            J59                             J89                                 196.4950      80.0000     102.8684       0.0000       
 P119                            J60                             J63                                 284.6043      80.0000     134.4640       0.0000       
 P120                            J60                             J90                                 190.5271      80.0000     139.4065       0.0000       
 P121                            J61                             J83                                 333.1943      80.0000     100.2723       0.0000       
 P122                            J61                             J92                                 194.6942     100.0000     124.7352       0.0000       
 P123                            J62                             J77                                 197.1892      80.0000     113.4518       0.0000       
 P124                            J62                             J84                                 196.6125     100.0000     113.2701       0.0000       
 P125                            J63                             J90                                 209.4796      80.0000     137.1738       0.0000       
 P126                            J64                             J66                                 296.3425      80.0000     113.4158       0.0000       
 P127                            J64                             J93                                 188.9446      80.0000     101.6692       0.0000       
 P128                            J65                             J96                                 136.2483     150.0000     139.1894       0.0000       
 P129                            J66                             J72                                 235.1637      80.0000     132.8370       0.0000       
 P130                            J66                             J91                                 198.9873      80.0000     125.4137       0.0000       
 P131                            J68                             J79                                 152.0174     125.0000     110.6051       0.0000       
 P132                            J70                             J72                                 156.4157      80.0000     139.6444       0.0000       
 P133                            J70                             J73                                 191.9069      80.0000     114.3486       0.0000       
 P134                            J75                             J78                                 145.0435      80.0000     106.9501       0.0000       
 P135                            J76                             J86                                 146.3667     250.0000     110.1312       0.0000       
 P136                            J76                             J87                                 214.4709      80.0000     104.1148       0.0000       
 P137                            J76                             J88                                 176.8746     250.0000     123.0473       0.0000       
 P138                            J78                             J97                                 172.1629      80.0000     129.2128       0.0000       
 P139                            J85                             J88                                 177.2916     200.0000     104.5034       0.0000       
 P140                            J86                             J87                                 170.4859      80.0000     111.1302       0.0000       
 P141                            J87                             J88                                 282.4222      80.0000     135.5828       0.0000       

[PUMPS]

[VALVES]

[DEMANDS]
 J1                                    0.748757                                
 J2                                    0.961398                                
 J3                                    1.183529                                
 J4                                    1.172186                                
 J5                                    1.244809                                
 J6                                    0.923518                                
 J7                                    2.529632                                
 J8                                    0.434754                                
 J9                                    1.176349                                
 J10                                   0.616639                                
 J11                                   0.807859                                
 J12                                   1.016734                                
 J13                                   0.902135                                
 J14                                   0.418361                                
 J15                                   0.631092                                
 J16                                   0.785926                                
 J17                                   0.765373                                
 J18                                   0.311601                                
 J19                                   0.642684                                
 J20                                   0.565163                                
 J21                                   0.923096                                
 J22                                   1.063869                                
 J23                                   0.731228                                
 J24                                   0.663217                                
 J25                                   0.700468                                
 J26                                   1.019785                                
 J27                                   0.310992                                
 J28                                   0.672291                                
 J29                                   1.762546                                
 J30                                   0.706532                                
 J31                                   1.096400                                
 J32                                   0.433953                                
 J33                                   0.588110                                
 J34                                   0.393968                                
 J35                                   1.134699                                
 J36                                   1.638664                                
 J37                                   0.292395                                
 J38                                   0.563252                                
 J39                                   1.120160                                
 J40                                   1.555360                                
 J41                                   0.796337                                
 J42                                   0.513716                                
 J43                                   0.311624                                
 J44                                   0.697536                                
 J45                                   0.682406                                
 J46                                   1.374762                                
 J47                                   0.857777                                
 J48                                   0.919882                                
 J49                                   0.773564                                
 J50                                   1.225504                                
 J51                                   0.461168                                
 J52                                   0.206109                                
 J53                                   1.006020                                
 J54                                   0.354839                                
 J55                                   0.972611                                
 J56                                   1.244460                                
 J57                                   0.902179                                
 J58                                   0.249309                                
 J59                                   0.576988                                
 J60                                   1.883748                                
 J61                                   2.985716                                
 J62                                   2.130826                                
 J63                                   0.533567                                
 J64                                   0.507259                                
 J65                                   0.201013                                
 J66                                   0.132935                                
 J67                                   0.659439                                
 J68                                   0.411714                                
 J69                                   2.834902                                
 J70                                   0.946596                                
 J71                                   2.234503                                
 J72                                   0.597282                                
 J73                                   0.732313                                
 J74                                   1.033694                                
 J75                                   1.084679                                
 J76                                   0.835463                                
 J77                                   0.695164                                
 J78                                   0.996415                                
 J79                                   0.257998                                
 J80                                   0.594538                                
 J81                                   0.690421                                
 J82                                   1.056952                                
 J83                                   1.655290                                
 J84                                   1.723638                                
 J85                                   1.145141                                
 J86                                   1.000089                                
 J87                                   0.941396                                
 J88                                   0.433780                                
 J89                                   0.625283                                
 J90                                   0.435047                                
 J91                                   0.902848                                
 J92                                   0.603784                                
 J93                                   1.026911                                
 J94                                   0.452149                                
 J95                                   1.555980                                
 J96                                   0.341042                                
 J97                                   0.556564                                

[EMITTERS]

[STATUS]

[PATTERNS]

[CURVES]

[CONTROLS]

[RULES]

[QUALITY]

[SOURCES]

[MIXING]

[REACTIONS]
 ORDER  BULK            1.00
 ORDER  WALL            1
 ORDER  TANK            1.00
 GLOBAL BULK            0.000000
 GLOBAL WALL            0.000000

[ENERGY]
 GLOBAL EFFIC        75.0000
 DEMAND CHARGE       0.0000

[TIMES]
 DURATION            0:00:00
 HYDRAULIC TIMESTEP  1:00:00
 QUALITY TIMESTEP    0:06:00
 REPORT TIMESTEP     1:00:00
 REPORT START        0:00:00
 PATTERN TIMESTEP    1:00:00
 PATTERN START       0:00:00
 RULE TIMESTEP       0:06:00
 START CLOCKTIME     0:00:00
 STATISTIC           NONE

[OPTIONS]
 UNITS               LPS
 PRESSURE            METERS
 HEADLOSS            H-W
 UNBALANCED          STOP
 QUALITY             NONE
 DEMAND MULTIPLIER   1.0000
 EMITTER EXPONENT    0.5000
 VISCOSITY           1.000000
 DIFFUSIVITY         1.000000
 SPECIFIC GRAVITY    1.000000
 TRIALS              500
 ACCURACY            0.00000001
 TOLERANCE           0.01000000
 CHECKFREQ           2
 MAXCHECK            10
 DAMPLIMIT           0.00000000

[REPORT]
 PAGESIZE            0
 STATUS              NO
 SUMMARY             YES
 ENERGY              NO
 MESSAGES            YES
 NODES               NONE
 LINKS               NONE
 Elevation           NO
 Demand              PRECISION 2
 Head                PRECISION 2
 Pressure            PRECISION 2
 Quality             PRECISION 2
 Length              NO
 Diameter            NO
 Flow                PRECISION 2
 Velocity            PRECISION 2
 Headloss            PRECISION 2
 Quality             NO
 State               NO
 Setting             NO
 Reaction            NO

[COORDINATES]
 J1                                  294.429783    1683.878440
 J2                                 1329.720958     688.246014
 J3                                 1345.315294      53.270069
 J4                                  369.704124    1437.445703
 J5                                 1074.473284     618.163438
 J6                                   27.376195      24.523575
 J7                                  833.551579     415.896122
 J8                                  160.713487     420.019758
 J9                                 1136.462460     107.377424
 J10                                 364.870493     375.458327
 J11                                 720.802175     741.645866
 J12                                 446.395360    1133.260786
 J13                                 276.667867    1160.824199
 J14                                1251.486090     185.664801
 J15                                 943.131447     971.698295
 J16                                 615.690592    1210.042637
 J17                                 273.357319      97.140839
 J18                                 821.337347    1538.594492
 J19                                1520.323814     518.846424
 J20                                 699.449979    1671.922136
 J21                                 690.480605     874.658393
 J22                                1675.096846     111.376672
 J23                                1259.654287    1415.578764
 J24                                1585.979820    1485.865836
 J25                                1027.631864    1430.968218
 J26                                 444.571009      49.976430
 J27                                 183.991731    1005.954973
 J28                                  39.587170    1444.859566
 J29                                 810.071490      26.148579
 J30                                 553.814349    1662.789215
 J31                                 468.037236     953.827908
 J32                                1605.863453     687.709757
 J33                                 539.723070     651.103328
 J34                                1201.743511     918.076000
 J35                                  32.199638    1122.252616
 J36                                1341.466349     545.021347
 J37                                 383.145581     780.378340
 J38                                   3.202285     940.213178
 J39                                 475.533594    1519.511822
 J40                                 705.494556    1483.191356
 J41                                1121.811655     434.262666
 J42                                 847.356441    1092.245002
 J43                                1165.785896    1055.023621
 J44                                 611.726368     155.185528
 J45                                 176.868686    1500.491231
 J46                                 416.488188     598.849994
 J47                                 661.875724    1035.487923
 J48                                 929.800752     613.680515
 J49                                1429.980539     964.891873
 J50                                1270.169849     322.799010
 J51                                1401.100236    1642.559079
 J52                                 585.190803     802.871259
 J53                                 595.149219     338.498942
 J54                                1716.173951     965.401297
 J55                                1569.941378     893.143578
 J56                                1567.937279    1061.792198
 J57                                 948.495387    1701.323985
 J58                                  41.379005     385.781428
 J59                                 691.195870    1309.933285
 J60                                 256.767750     627.961643
 J61                                 279.075281    1298.637911
 J62                                 939.393622     135.337818
 J63                                  62.219551     772.176214
 J64                                1492.592672    1400.258381
 J65                                 938.941915     736.664374
 J66                                1397.780292    1162.266381
 J67                                 167.247191     194.681762
 J68                                1017.566169    1170.940784
 J69                                 586.925720     464.652385
 J70                                1718.363994    1183.028544
 J71                                   9.127529    1605.720594
 J72                                1589.691007    1207.139580
 J73                                1709.141803    1356.798594
 J74                                1207.703748     753.576433
 J75                                1223.711079    1616.748263
 J76                                1562.097459     215.889751
 J77                                1015.459573     274.952091
 J78                                1111.236571    1696.300320
 J79                                1040.413083    1300.165824
 J80                                1713.638285    1639.830475
 J81                                 355.359340    1559.085019
 J82                                 725.707776     617.027066
 J83                                  14.712175    1257.293950
 J84                                 808.515389     261.679134
 J85                                1652.239086     466.213825
 J86                                1434.935127     232.237195
 J87                                1455.938840     373.702689
 J88                                1679.909355     315.621008
 J89                                 835.692486    1403.724750
 J90                                  99.313756     594.570180
 J91                                1292.242873    1030.350887
 J92                                 442.479343    1323.409840
 J93                                1383.385662    1509.693816
 J94                                1450.841080     761.577936
 J95                                 471.557379     269.775460
 J96                                 866.597139     841.734102
 J97                                1083.931291    1559.210056
 R1                                 1629.909355     265.621008

[VERTICES]

[END]
