[TITLE]

[JUNCTIONS]
 J1                                    8.5170
 J2                                   10.3791
 J3                                   11.4942
 J4                                   11.6886
 J5                                    7.9905
 J6                                    2.7530
 J7                                   13.6972
 J8                                   13.9226
 J9                                    4.5216
 J10                                   3.3626
 J11                                   4.3769
 J12                                  10.3392
 J13                                   4.8719
 J14                                   7.4645
 J15                                   7.2021
 J16                                   6.5866
 J17                                   8.3343
 J18                                   9.1910
 J19                                   9.0981
 J20                                   8.2686
 J21                                   4.7574
 J22                                  10.3340
 J23                                   9.9788
 J24                                   8.1803
 J25                                   7.2278
 J26                                   9.6973
 J27                                  10.8721
 J28                                   7.7543
 J29                                  13.1090
 J30                                   7.3325
 J31                                  13.3457
 J32                                   4.4874
 J33                                  10.0228
 J34                                  10.1558
 J35                                   7.1036
 J36                                   6.6454
 J37                                  10.4456
 J38                                   3.0332
 J39                                  11.6538
 J40                                   9.1809
 J41                                   6.3757
 J42                                  13.2909
 J43                                   9.7930
 J44                                   9.8089
 J45                                   9.7553
 J46                                   9.6488
 J47                                   7.1997
 J48                                   5.5614
 J49                                  14.7002
 J50                                  13.5459
 J51                                   2.4166
 J52                                  13.1958
 J53                                   6.1547
 J54                                   9.7681
 J55                                   6.8069
 J56                                  10.1861
 J57                                   8.1868
 J58                                  10.1912
 J59                                   9.8679
 J60                                   6.8717
 J61                                   2.3563
 J62                                   9.2777
 J63                                   2.8285
 J64                                   0.0000
 J65                                   4.7261
 J66                                   4.4462
 J67                                   5.5995
 J68                                   8.1591
 J69                                   5.3175
 J70                                   8.5237
 J71                                  11.3168
 J72                                   8.2462
 J73                                   6.4649

[RESERVOIRS]
 R1                                   79.5623                                

[TANKS]

[PIPES]
 PS1                             R1                              J8                                   50.0000     800.0000     140.0000       0.0000       
 P1                              J1                              J2                                  892.5218     125.0000     116.9965       0.0000       
 P2                              J1                              J4                                  807.8396      80.0000     121.3721       0.0000       
 P3                              J1                              J17                                 769.9117     100.0000     111.0611       0.0000       
 P4                              J1                              J29                                 707.7520      80.0000     136.0799       0.0000       
 P5                              J1                              J56                                 809.9802      80.0000     120.8088       0.0000       
 P6                              J1                              J71                                 938.8848      80.0000     135.0198       0.0000       
 P7                              J2                              J8                                  641.1733     125.0000     119.5020       0.0000       
 P8                              J2                              J37                                 688.5849      80.0000     125.6178       0.0000       
 P9                              J2                              J50                                 705.2845      80.0000     110.2219       0.0000       
 P10                             J2                              J56                                 674.4073      80.0000     119.7323       0.0000       
 P11                             J2                              J62                                 651.7731      80.0000     128.7633       0.0000       
 P12                             J3                              J4                                  572.1687      80.0000     134.7741       0.0000       
 P13                             J3                              J5                                  953.1086      80.0000     130.2022       0.0000       
 P14                             J3                              J41                                 988.7948      80.0000     127.6705       0.0000       
 P15                             J3                              J44                                 793.5652      80.0000     108.7995       0.0000       
 P16                             J3                              J56                                 637.6460      80.0000     109.3806       0.0000       
 P17                             J4                              J13                                 973.2537      80.0000     105.9191       0.0000       
 P18                             J4                              J41                                1066.6725      80.0000     130.7716       0.0000       
 P19                             J5                              J41                                 688.1864     125.0000     134.0095       0.0000       
 P20                             J5                              J44                                 768.4970     125.0000     101.9284       0.0000       
 P21                             J6                              J9                                  561.7907      80.0000     134.8396       0.0000       
 P22                             J6                              J14                                 594.4795      80.0000     136.7347       0.0000       
 P23                             J6                              J48                                 698.5100      80.0000     115.5132       0.0000       
 P24                             J7                              J12                                 843.5483      80.0000     111.9802       0.0000       
 P25                             J7                              J49                                 961.3374     100.0000     120.5402       0.0000       
 P26                             J7                              J58                                 652.7125      80.0000     135.4939       0.0000       
 P27                             J8                              J24                                 595.3809     125.0000     120.7511       0.0000       
 P28                             J8                              J31                                 812.3625     300.0000     139.5660       0.0000       
 P29                             J8                              J37                                 862.3434      80.0000     124.6457       0.0000       
 P30                             J8                              J50                                 488.3917     200.0000     131.0446       0.0000       
 P31                             J9                              J18                                 526.8576      80.0000     100.1635       0.0000       
 P32                             J9                              J48                                 584.8006      80.0000     121.7873       0.0000       
 P33                             J9                              J65                                 464.0404      80.0000     138.5096       0.0000       
 P34                             J10                             J11                                 602.1219      80.0000     116.5756       0.0000       
 P35                             J10                             J15                                 610.1663      80.0000     121.4749       0.0000       
 P36                             J10                             J60                                 814.6262     100.0000     139.0809       0.0000       
 P37                             J10                             J70                                 639.3284      80.0000     122.5928       0.0000       
 P38                             J11                             J63                                 661.9278      80.0000     108.5998       0.0000       
 P39                             J11                             J70                                 490.3381      80.0000     103.6291       0.0000       
 P40                             J12                             J46                                 425.3994     200.0000     111.0437       0.0000       
 P41                             J12                             J49                                 945.8669     200.0000     105.4138       0.0000       
 P42                             J13                             J41                                 511.3866      80.0000     124.4912       0.0000       
 P43                             J13                             J65                                 456.1375      80.0000     100.1981       0.0000       
 P44                             J13                             J72                                 446.3729      80.0000     122.2180       0.0000       
 P45                             J14                             J22                                 714.6898      80.0000     120.1560       0.0000       
 P46                             J15                             J21                                 762.4685      80.0000     127.0368       0.0000       
 P47                             J15                             J55                                 559.7556      80.0000     117.2162       0.0000       
 P48                             J15                             J60                                 684.1025      80.0000     112.4987       0.0000       
 P49                             J15                             J73                                 645.1116      80.0000     111.4555       0.0000       
 P50                             J16                             J20                                 942.9759      80.0000     131.5249       0.0000       
 P51                             J16                             J22                                 851.8392      80.0000     138.9173       0.0000       
 P52                             J16                             J28                                 773.3058      80.0000     104.8915       0.0000       
 P53                             J16                             J40                                 640.9325      80.0000     122.9331       0.0000       
 P54                             J16                             J47                                 697.2494      80.0000     119.8482       0.0000       
 P55                             J16                             J53                                 604.3123      80.0000     101.3680       0.0000       
 P56                             J16                             J59                                 915.6823     125.0000     133.1711       0.0000       
 P57                             J17                             J27                                 538.6859     100.0000     120.0272       0.0000       
 P58                             J17                             J34                                 998.9283      80.0000     124.5256       0.0000       
 P59                             J17                             J71                                 676.1318      80.0000     134.6649       0.0000       
 P60                             J18                             J27                                 541.6116      80.0000     136.6428       0.0000       
 P61                             J18                             J65                                 512.6997      80.0000     106.2858       0.0000       
 P62                             J19                             J38                                 647.8500      80.0000     126.6261       0.0000       
 P63                             J19                             J39                                 513.5150     100.0000     123.0021       0.0000       
 P64                             J19                             J51                                 692.6545      80.0000     102.2376       0.0000       
 P65                             J19                             J54                                 519.6678      80.0000     126.8067       0.0000       
 P66                             J20                             J36                                 472.2714     100.0000     117.7793       0.0000       
 P67                             J20                             J59                                 712.3401     100.0000     131.8662       0.0000       
 P68                             J20                             J64                                 635.8682      80.0000     131.9508       0.0000       
 P69                             J20                             J69                                 604.9572      80.0000     136.4151       0.0000       
 P70                             J21                             J35                                 650.3306     100.0000     137.0158       0.0000       
 P71                             J21                             J39                                 978.2337      80.0000     139.0686       0.0000       
 P72                             J21                             J51                                 911.5657      80.0000     102.6137       0.0000       
 P73                             J21                             J55                                 555.4085      80.0000     131.6718       0.0000       
 P74                             J21                             J73                                 660.1561      80.0000     113.3492       0.0000       
 P75                             J22                             J23                                 721.5739      80.0000     104.0852       0.0000       
 P76                             J22                             J28                                 668.4382      80.0000     116.8329       0.0000       
 P77                             J22                             J33                                 436.8636      80.0000     134.6835       0.0000       
 P78                             J23                             J27                                 484.8295      80.0000     108.9138       0.0000       
 P79                             J23                             J28                                 471.4232      80.0000     121.4561       0.0000       
 P80                             J24                             J35                                 450.0933     125.0000     114.4672       0.0000       
 P81                             J24                             J50                                 633.3034      80.0000     121.8809       0.0000       
 P82                             J24                             J55                                 762.8935      80.0000     114.1070       0.0000       
 P83                             J24                             J68                                 745.6912      80.0000     127.2743       0.0000       
 P84                             J25                             J36                                 614.5469      80.0000     105.8149       0.0000       
 P85                             J25                             J47                                 532.8603      80.0000     137.8508       0.0000       
 P86                             J25                             J67                                 458.3150      80.0000     129.8441       0.0000       
 P87                             J26                             J30                                 710.9483      80.0000     110.0388       0.0000       
 P88                             J26                             J72                                 566.4989      80.0000     114.4569       0.0000       
 P89                             J28                             J34                                 763.5290      80.0000     139.7416       0.0000       
 P90                             J28                             J59                                 699.3272      80.0000     129.2297       0.0000       
 P91                             J29                             J39                                 591.9422     100.0000     104.2102       0.0000       
 P92                             J29                             J50                                 426.5346     200.0000     124.5550       0.0000       
 P93                             J29                             J71                                 799.3969     200.0000     120.6960       0.0000       
 P94                             J30                             J57                                 572.2152      80.0000     122.0719       0.0000       
 P95                             J30                             J72                                 789.5034      80.0000     113.1012       0.0000       
 P96                             J31                             J37                                1013.1947      80.0000     117.1609       0.0000       
 P97                             J31                             J45                                 508.5498     100.0000     107.4142       0.0000       
 P98                             J31                             J49                                 531.2463     300.0000     124.8252       0.0000       
 P99                             J32                             J63                                 516.9176      80.0000     123.5396       0.0000       
 P100                            J32                             J66                                 579.9992      80.0000     139.8938       0.0000       
 P101                            J32                             J73                                 786.1427      80.0000     123.6773       0.0000       
 P102                            J33                             J40                                 459.1191      80.0000     128.7933       0.0000       
 P103                            J34                             J54                                 492.6216      80.0000     130.5121       0.0000       
 P104                            J34                             J59                                 436.5766     150.0000     100.3764       0.0000       
 P105                            J34                             J71                                 722.7310     200.0000     134.9411       0.0000       
 P106                            J35                             J39                                 984.4450      80.0000     136.3454       0.0000       
 P107                            J35                             J50                                 604.5784      80.0000     110.8532       0.0000       
 P108                            J35                             J55                                 621.2955      80.0000     134.4149       0.0000       
 P109                            J36                             J47                                 551.8911      80.0000     138.3270       0.0000       
 P110                            J36                             J64                                 699.1465      80.0000     103.9726       0.0000       
 P111                            J37                             J46                                 452.7920      80.0000     134.3343       0.0000       
 P112                            J37                             J62                                 463.6415      80.0000     100.3475       0.0000       
 P113                            J38                             J51                                 482.2637      80.0000     101.6286       0.0000       
 P114                            J38                             J54                                 570.8503      80.0000     115.3830       0.0000       
 P115                            J38                             J61                                 570.6890      80.0000     134.7984       0.0000       
 P116                            J38                             J69                                 450.9342      80.0000     125.4597       0.0000       
 P117                            J39                             J71                                 510.7829      80.0000     138.2668       0.0000       
 P118                            J40                             J53                                 532.0277      80.0000     102.7552       0.0000       
 P119                            J41                             J72                                 440.7856     125.0000     129.9878       0.0000       
 P120                            J42                             J44                                 609.0265     150.0000     130.3476       0.0000       
 P121                            J42                             J46                                 617.3467     150.0000     138.5199       0.0000       
 P122                            J42                             J52                                 540.7083      80.0000     126.8768       0.0000       
 P123                            J43                             J45                                1108.0886     150.0000     104.2527       0.0000       
 P124                            J43                             J60                                 758.1211     125.0000     113.8619       0.0000       
 P125                            J43                             J68                                 503.6123      80.0000     105.3642       0.0000       
 P126                            J45                             J49                                 624.3840     200.0000     117.6730       0.0000       
 P127                            J46                             J62                                 571.7863      80.0000     103.1937       0.0000       
 P128                            J47                             J53                                 487.8912      80.0000     136.8508       0.0000       
 P129                            J48                             J57                                 467.1704      80.0000     132.4841       0.0000       
 P130                            J48                             J65                                 642.3597      80.0000     104.1773       0.0000       
 P131                            J48                             J72                                 818.3646      80.0000     116.2542       0.0000       
 P132                            J51                             J61                                 608.8488      80.0000     115.6682       0.0000       
 P133                            J51                             J66                                 449.0422      80.0000     127.8139       0.0000       
 P134                            J52                             J58                                 475.0353      80.0000     135.3675       0.0000       
 P135                            J53                             J67                                 901.5672      80.0000     134.7247       0.0000       
 P136                            J54                             J59                                 582.2340      80.0000     110.5612       0.0000       
 P137                            J54                             J69                                 620.8863      80.0000     121.0980       0.0000       
 P138                            J55                             J68                                 431.4736      80.0000     117.1403       0.0000       
 P139                            J56                             J62                                 541.2783      80.0000     132.6542       0.0000       
 P140                            J57                             J72                                 927.2147      80.0000     107.2222       0.0000       
 P141                            J59                             J69                                 694.4093      80.0000     136.5334       0.0000       
 P142                            J60                             J68                                 718.2845      80.0000     103.1888       0.0000       
 P143                            J61                             J64                                1079.5084      80.0000     126.1555       0.0000       
 P144                            J61                             J66                                 645.4958      80.0000     126.7582       0.0000       
 P145                            J63                             J73                                 686.9609      80.0000     111.7768       0.0000       
 P146                            J64                             J69                                 692.6702      80.0000     118.6535       0.0000       
 P147                            J66                             J73                                 645.8007      80.0000     109.6618       0.0000       

[PUMPS]

[VALVES]

[DEMANDS]
 J1                                    1.434614                                
 J2                                    2.542196                                
 J3                                    1.621051                                
 J4                                    1.088471                                
 J5                                    1.100080                                
 J6                                    1.955045                                
 J7                                    2.825638                                
 J8                                    0.718890                                
 J9                                    1.996001                                
 J10                                   3.434814                                
 J11                                   2.442807                                
 J12                                   1.326174                                
 J13                                   1.135294                                
 J14                                   0.939708                                
 J15                                   2.896055                                
 J16                                   3.613528                                
 J17                                   1.543998                                
 J18                                   1.721250                                
 J19                                   1.732853                                
 J20                                   1.842121                                
 J21                                   1.083344                                
 J22                                   0.695391                                
 J23                                   0.922148                                
 J24                                   3.250127                                
 J25                                   3.823396                                
 J26                                   5.028630                                
 J27                                   1.079598                                
 J28                                   1.240166                                
 J29                                   0.735824                                
 J30                                   1.374775                                
 J31                                   3.077245                                
 J32                                   0.800307                                
 J33                                   1.490211                                
 J34                                   1.150880                                
 J35                                   2.139208                                
 J36                                   1.692283                                
 J37                                   1.679945                                
 J38                                   3.518061                                
 J39                                   1.003692                                
 J40                                   3.573717                                
 J41                                   1.150940                                
 J42                                   1.014525                                
 J43                                   2.998963                                
 J44                                   1.134188                                
 J45                                   3.705638                                
 J46                                   1.337098                                
 J47                                   2.551097                                
 J48                                   1.324586                                
 J49                                   1.179453                                
 J50                                   1.709464                                
 J51                                   0.833002                                
 J52                                   1.525610                                
 J53                                   1.077992                                
 J54                                   0.976323                                
 J55                                   3.148033                                
 J56                                   3.052824                                
 J57                                   1.282861                                
 J58                                   2.490268                                
 J59                                   1.326440                                
 J60                                   3.195907                                
 J61                                   2.497840                                
 J62                                   0.467837                                
 J63                                   0.858644                                
 J64                                   0.842218                                
 J65                                   1.547677                                
 J66                                   2.530697                                
 J67                                   1.759327                                
 J68                                   1.818826                                
 J69                                   1.447303                                
 J70                                   1.553764                                
 J71                                   1.582144                                
 J72                                   1.669361                                
 J73                                   0.993981                                

[EMITTERS]

[STATUS]

[PATTERNS]

[CURVES]

[CONTROLS]

[RULES]

[QUALITY]

[SOURCES]

[MIXING]

[REACTIONS]
 ORDER  BULK            1.00
 ORDER  WALL            1
 ORDER  TANK            1.00
 GLOBAL BULK            0.000000
 GLOBAL WALL            0.000000

[ENERGY]
 GLOBAL EFFIC        75.0000
 DEMAND CHARGE       0.0000

[TIMES]
 DURATION            0:00:00
 HYDRAULIC TIMESTEP  1:00:00
 QUALITY TIMESTEP    0:06:00
 REPORT TIMESTEP     1:00:00
 REPORT START        0:00:00
 PATTERN TIMESTEP    1:00:00
 PATTERN START       0:00:00
 RULE TIMESTEP       0:06:00
 START CLOCKTIME     0:00:00
 STATISTIC           NONE

[OPTIONS]
 UNITS               LPS
 PRESSURE            METERS
 HEADLOSS            H-W
 UNBALANCED          STOP
 QUALITY             NONE
 DEMAND MULTIPLIER   1.0000
 EMITTER EXPONENT    0.5000
 VISCOSITY           1.000000
 DIFFUSIVITY         1.000000
 SPECIFIC GRAVITY    1.000000
 TRIALS              500
 ACCURACY            0.00000001
 TOLERANCE           0.01000000
 CHECKFREQ           2
 MAXCHECK            10
 DAMPLIMIT           0.00000000

[REPORT]
 PAGESIZE            0
 STATUS              NO
 SUMMARY             YES
 ENERGY              NO
 MESSAGES            YES
 NODES               NONE
 LINKS               NONE
 Elevation           NO
 Demand              PRECISION 2
 Head                PRECISION 2
 Pressure            PRECISION 2
 Quality             PRECISION 2
 Length              NO
 Diameter            NO
 Flow                PRECISION 2
 Velocity            PRECISION 2
 Headloss            PRECISION 2
 Quality             NO
 State               NO
 Setting             NO
 Reaction            NO

[COORDINATES]
 J1                                 2157.267503    1857.307868
 J2                                 2828.307202    1586.413332
 J3                                 2026.790408     833.507304
 J4                                 1796.102409    1297.737126
 J5                                 1610.018961      45.283050
 J6                                  221.923355    1729.800166
 J7                                 4294.839344     393.680321
 J8                                 3313.261364    1937.830152
 J9                                  684.912907    1543.267795
 J10                                4158.785099    3904.513084
 J11                                4080.088554    4432.839935
 J12                                3576.186733     720.152988
 J13                                 986.239503     849.754200
 J14                                 389.575149    2230.166861
 J15                                3875.498517    3505.376873
 J16                                 624.876625    3476.212949
 J17                                1610.991868    2267.413870
 J18                                1109.941369    1608.941602
 J19                                2279.618885    3230.836710
 J20                                1215.197197    4036.069924
 J21                                3261.815430    3216.338182
 J22                                 473.215357    2809.473870
 J23                                 984.237691    2477.659782
 J24                                3514.174003    2402.126611
 J25                                 457.269433    4487.853879
 J26                                 615.631296      16.380898
 J27                                1197.815751    2084.908846
 J28                                1021.301213    2857.730122
 J29                                2627.854219    2328.664570
 J30                                 120.091354     346.692277
 J31                                3969.371490    1538.621469
 J32                                3112.116870    4384.910428
 J33                                  82.410321    2934.986589
 J34                                1585.494188    3105.862451
 J35                                3252.925233    2692.276078
 J36                                 963.923777    4366.419200
 J37                                3238.465653    1128.634608
 J38                                2136.709929    3829.807409
 J39                                2460.375546    2845.494793
 J40                                 105.769137    3363.107632
 J41                                1202.839492     487.926462
 J42                                2851.510983     288.767117
 J43                                4362.734040    2610.091728
 J44                                2301.936474     166.742539
 J45                                4363.722968    1640.993141
 J46                                3178.771791     703.002953
 J47                                 541.661093    4062.598317
 J48                                 343.021377    1122.664776
 J49                                4215.288792    1162.740734
 J50                                2990.564231    2203.139234
 J51                                2561.596056    3723.848162
 J52                                3283.881276      58.875360
 J53                                 195.400595    3779.886263
 J54                                1883.431868    3446.885922
 J55                                3691.711167    3026.043024
 J56                                2417.670614    1209.994586
 J57                                 101.987536     819.450683
 J58                                3708.248173     190.580315
 J59                                1356.910103    3405.204224
 J60                                4438.383533    3218.502079
 J61                                2464.394186    4213.921697
 J62                                2833.289967    1063.137073
 J63                                3529.282481    4379.819335
 J64                                1526.147827    4526.521171
 J65                                 938.908933    1224.652743
 J66                                2912.753810    3936.289832
 J67                                  51.383144    4501.110307
 J68                                4002.719896    2797.870955
 J69                                1731.036945    3929.983075
 J70                                4481.853239    4392.882506
 J71                                2066.158246    2666.378132
 J72                                 824.697299     510.815773
 J73                                3410.899377    3762.078251
 R1                                 3263.261364    1887.830152

[VERTICES]

[END]
