[TITLE]

[JUNCTIONS]
 J1                                   32.8821
 J2                                   31.0749
 J3                                   22.4231
 J4                                   31.5325
 J5                                   37.2210
 J6                                   11.2230
 J7                                   35.9503
 J8                                   51.4738
 J9                                   44.4279
 J10                                  36.6448
 J11                                  28.7220
 J12                                   0.0000
 J13                                  39.3549
 J14                                  40.6642
 J15                                  27.1735
 J16                                  33.5250
 J17                                  28.1871
 J18                                  34.2890
 J19                                  42.0394
 J20                                   6.9117
 J21                                  19.7364
 J22                                  35.2048
 J23                                  10.3008
 J24                                  53.6736
 J25                                  42.6880
 J26                                  42.4402
 J27                                  39.8746
 J28                                  42.5308
 J29                                  30.7061
 J30                                  43.5638
 J31                                  13.5779
 J32                                  26.6375
 J33                                  39.6318
 J34                                  33.6806
 J35                                  46.1706
 J36                                  31.6328
 J37                                  30.7584
 J38                                  39.2060

[RESERVOIRS]
 R1                                  118.6157                                

[TANKS]

[PIPES]
 PS1                             R1                              J24                                  50.0000     800.0000     140.0000       0.0000       
 P1                              J1                              J4                                  315.2868      80.0000     107.0722       0.0000       
 P2                              J1                              J23                                 323.0180      80.0000     131.7626       0.0000       
 P3                              J2                              J12                                 544.3994      80.0000     104.4684       0.0000       
 P4                              J2                              J14                                 299.5850      80.0000     139.5733       0.0000       
 P5                              J3                              J9                                  359.7086     100.0000     132.5791       0.0000       
 P6                              J3                              J18                                 258.2646      80.0000     102.9044       0.0000       
 P7                              J3                              J21                                 362.2037      80.0000     118.8151       0.0000       
 P8                              J3                              J36                                 346.0238     100.0000     134.3878       0.0000       
 P9                              J4                              J20                                 306.9014      80.0000     101.1892       0.0000       
 P10                             J5                              J21                                 302.2751     200.0000     117.6127       0.0000       
 P11                             J5                              J26                                 252.6110     150.0000     132.1643       0.0000       
 P12                             J6                              J30                                 312.3272      80.0000     139.1001       0.0000       
 P13                             J7                              J11                                 314.0076     100.0000     135.6629       0.0000       
 P14                             J7                              J13                                 299.2064     125.0000     130.9714       0.0000       
 P15                             J8                              J27                                 319.7648     200.0000     128.3641       0.0000       
 P16                             J8                              J38                                 464.0657     200.0000     116.9348       0.0000       
 P17                             J9                              J10                                 381.4549      80.0000     121.9565       0.0000       
 P18                             J9                              J17                                 314.4102     100.0000     104.0166       0.0000       
 P19                             J9                              J21                                 284.5941      80.0000     139.4394       0.0000       
 P20                             J10                             J30                                 411.2274      80.0000     103.1653       0.0000       
 P21                             J10                             J33                                 607.7567     150.0000     136.5591       0.0000       
 P22                             J10                             J36                                 476.6538     150.0000     131.5521       0.0000       
 P23                             J11                             J31                                 309.0841      80.0000     117.2023       0.0000       
 P24                             J12                             J14                                 428.0045      80.0000     101.0840       0.0000       
 P25                             J12                             J20                                 357.0248      80.0000     118.6304       0.0000       
 P26                             J13                             J34                                 265.1424     125.0000     138.3352       0.0000       
 P27                             J14                             J33                                 266.2462     150.0000     110.7442       0.0000       
 P28                             J15                             J16                                 266.9856     250.0000     133.0949       0.0000       
 P29                             J15                             J30                                 358.4049     100.0000     105.1698       0.0000       
 P30                             J15                             J35                                 437.4092      80.0000     134.3349       0.0000       
 P31                             J15                             J36                                 266.4714     200.0000     104.8784       0.0000       
 P32                             J16                             J24                                 326.4450     250.0000     138.9886       0.0000       
 P33                             J17                             J23                                 410.4954      80.0000     114.7593       0.0000       
 P34                             J17                             J33                                 539.8781      80.0000     134.4971       0.0000       
 P35                             J18                             J36                                 449.5269      80.0000     127.4510       0.0000       
 P36                             J19                             J30                                 266.5563      80.0000     120.3175       0.0000       
 P37                             J19                             J35                                 260.9022      80.0000     116.4206       0.0000       
 P38                             J21                             J27                                 362.4798     200.0000     112.2226       0.0000       
 P39                             J22                             J37                                 299.2861      80.0000     101.8312       0.0000       
 P40                             J23                             J33                                 519.0462      80.0000     131.7057       0.0000       
 P41                             J23                             J34                                 386.7698      80.0000     133.2337       0.0000       
 P42                             J24                             J38                                 361.5058     200.0000     121.8433       0.0000       
 P43                             J25                             J29                                 267.5999      80.0000     136.4913       0.0000       
 P44                             J25                             J32                                 315.9519      80.0000     101.4352       0.0000       
 P45                             J26                             J34                                 254.1838     150.0000     139.8283       0.0000       
 P46                             J27                             J28                                 313.6292      80.0000     132.1178       0.0000       
 P47                             J27                             J29                                 276.1425      80.0000     111.3029       0.0000       
 P48                             J28                             J37                                 296.7548      80.0000     120.6579       0.0000       
 P49                             J30                             J36                                 294.0514      80.0000     120.5013       0.0000       

[PUMPS]

[VALVES]

[DEMANDS]
 J1                                    1.797449                                
 J2                                    6.566136                                
 J3                                    1.214009                                
 J4                                    2.371860                                
 J5                                    4.109107                                
 J6                                    3.367070                                
 J7                                    3.002040                                
 J8                                    0.964748                                
 J9                                    2.064770                                
 J10                                   0.661829                                
 J11                                   4.679866                                
 J12                                   2.244000                                
 J13                                   2.466561                                
 J14                                   4.797252                                
 J15                                   0.979162                                
 J16                                   1.614658                                
 J17                                   1.064278                                
 J18                                   3.726004                                
 J19                                   3.481565                                
 J20                                   3.463998                                
 J21                                   1.836924                                
 J22                                   1.728387                                
 J23                                   1.780937                                
 J24                                   2.645623                                
 J25                                   3.425210                                
 J26                                   2.848109                                
 J27                                   1.555039                                
 J28                                   3.406179                                
 J29                                   0.474734                                
 J30                                   1.915860                                
 J31                                   2.954716                                
 J32                                   1.575726                                
 J33                                   4.637145                                
 J34                                   4.741445                                
 J35                                   2.578079                                
 J36                                   2.332400                                
 J37                                   0.740630                                
 J38                                   1.143510                                

[EMITTERS]

[STATUS]

[PATTERNS]

[CURVES]

[CONTROLS]

[RULES]

[QUALITY]

[SOURCES]

[MIXING]

[REACTIONS]
 ORDER  BULK            1.00
 ORDER  WALL            1
 ORDER  TANK            1.00
 GLOBAL BULK            0.000000
 GLOBAL WALL            0.000000

[ENERGY]
 GLOBAL EFFIC        75.0000
 DEMAND CHARGE       0.0000

[TIMES]
 DURATION            0:00:00
 HYDRAULIC TIMESTEP  1:00:00
 QUALITY TIMESTEP    0:06:00
 REPORT TIMESTEP     1:00:00
 REPORT START        0:00:00
 PATTERN TIMESTEP    1:00:00
 PATTERN START       0:00:00
 RULE TIMESTEP       0:06:00
 START CLOCKTIME     0:00:00
 STATISTIC           NONE

[OPTIONS]
 UNITS               LPS
 PRESSURE            METERS
 HEADLOSS            H-W
 UNBALANCED          STOP
 QUALITY             NONE
 DEMAND MULTIPLIER   1.0000
 EMITTER EXPONENT    0.5000
 VISCOSITY           1.000000
 DIFFUSIVITY         1.000000
 SPECIFIC GRAVITY    1.000000
 TRIALS              500
 ACCURACY            0.00000001
 TOLERANCE           0.01000000
 CHECKFREQ           2
 MAXCHECK            10
 DAMPLIMIT           0.00000000

[REPORT]
 PAGESIZE            0
 STATUS              NO
 SUMMARY             YES
 ENERGY              NO
 MESSAGES            YES
 NODES               NONE
 LINKS               NONE
 Elevation           NO
 Demand              PRECISION 2
 Head                PRECISION 2
 Pressure            PRECISION 2
 Quality             PRECISION 2
 Length              NO
 Diameter            NO
 Flow                PRECISION 2
 Velocity            PRECISION 2
 Headloss            PRECISION 2
 Quality             NO
 State               NO
 Setting             NO
 Reaction            NO

[COORDINATES]
 J1                                  983.760677      63.894822
 J2                                   12.093048     606.341245
 J3                                  848.558777    1282.136864
 J4                                  705.675541      43.969818
 J5                                 1176.451684     841.937471
 J6                                  179.471725    1039.574798
 J7                                 1719.576998     376.842875
 J8                                 1284.432372    1447.119778
 J9                                  903.233569     995.753830
 J10                                 554.720673    1026.301171
 J11                                1662.942688     127.943187
 J12                                 101.871524     179.581384
 J13                                1507.453295     493.310589
 J14                                 249.215593     497.740383
 J15                                 425.397758    1611.617940
 J16                                 534.735736    1829.904137
 J17                                 834.491712     734.393576
 J18                                 958.491596    1493.377241
 J19                                 145.211077    1434.349783
 J20                                 419.201176      94.481574
 J21                                1112.986984    1118.006718
 J22                                1843.603084    1574.834844
 J23                                 943.146778     360.268664
 J24                                 844.758346    1833.542281
 J25                                1770.341206     994.151627
 J26                                1296.363002     640.169478
 J27                                1416.635944    1189.368512
 J28                                1630.226322    1379.031443
 J29                                1544.567298    1000.162456
 J30                                 329.259467    1284.277592
 J31                                1424.914243      35.366807
 J32                                1812.138626     739.080683
 J33                                 476.260144     453.570210
 J34                                1303.602450     423.089366
 J35                                  39.833886    1643.726746
 J36                                 560.612425    1433.725954
 J37                                1580.770455    1647.187550
 J38                                1139.438346    1827.460138
 R1                                  794.758346    1783.542281

[VERTICES]

[END]
