[TITLE]

[JUNCTIONS]
 J1                                   11.4446
 J2                                    8.9164
 J3                                    8.9593
 J4                                    8.6460
 J5                                   10.3720
 J6                                    8.2339
 J7                                    7.5330
 J8                                   10.6611
 J9                                   13.8854
 J10                                   6.4502
 J11                                   3.6832
 J12                                  16.0535
 J13                                  10.3169
 J14                                   7.3339
 J15                                   9.7408
 J16                                   5.5819
 J17                                   6.5122
 J18                                  11.8760
 J19                                   7.6516
 J20                                   5.7814
 J21                                   8.2689
 J22                                   7.8321
 J23                                   4.5215
 J24                                   9.9107
 J25                                   7.3930
 J26                                  10.4581
 J27                                   5.4774
 J28                                   9.8158
 J29                                   8.5490
 J30                                   8.6150
 J31                                  10.3542
 J32                                  10.9881
 J33                                   6.3446
 J34                                   6.4533
 J35                                   8.8340
 J36                                  11.5685
 J37                                   5.2908
 J38                                  11.1124
 J39                                   0.0000
 J40                                   9.0636
 J41                                   5.2254
 J42                                   8.4954
 J43                                  13.0190
 J44                                   5.5319
 J45                                   9.5503
 J46                                  11.1690
 J47                                   7.1003
 J48                                   2.8304
 J49                                  10.2714
 J50                                   8.1899
 J51                                   7.4049
 J52                                  12.8907
 J53                                   8.0420
 J54                                   7.1979
 J55                                  13.3079
 J56                                  10.9396
 J57                                  10.0143
 J58                                   6.7396
 J59                                   9.5571
 J60                                   9.4547
 J61                                   3.9966
 J62                                   9.8463
 J63                                   4.3247
 J64                                   8.4538
 J65                                  11.0469
 J66                                   9.8706
 J67                                  11.0287
 J68                                  10.8620
 J69                                  15.3016
 J70                                   6.8726
 J71                                  12.0076
 J72                                  10.1126
 J73                                  14.2209
 J74                                  10.2705
 J75                                  14.7350
 J76                                   8.2647
 J77                                  10.0371
 J78                                   4.8446
 J79                                   6.8275
 J80                                   8.4013
 J81                                  12.5951
 J82                                   9.5205
 J83                                  15.5851
 J84                                   4.6451

[RESERVOIRS]
 R1                                   68.3955                                

[TANKS]

[PIPES]
 PS1                             R1                              J83                                  50.0000     800.0000     140.0000       0.0000       
 P1                              J1                              J73                                 227.4468     125.0000     108.7657       0.0000       
 P2                              J1                              J80                                 268.1660     125.0000     135.9863       0.0000       
 P3                              J1                              J81                                 263.3894      80.0000     106.2930       0.0000       
 P4                              J1                              J83                                 293.4736      80.0000     135.4102       0.0000       
 P5                              J2                              J43                                 319.2573      80.0000     115.8882       0.0000       
 P6                              J2                              J58                                 351.5262      80.0000     131.5037       0.0000       
 P7                              J2                              J64                                 225.4807      80.0000     100.4005       0.0000       
 P8                              J3                              J15                                 257.8397      80.0000     101.0055       0.0000       
 P9                              J3                              J53                                 334.7693      80.0000     104.0736       0.0000       
 P10                             J3                              J80                                 271.5255      80.0000     118.9934       0.0000       
 P11                             J4                              J23                                 346.7984      80.0000     109.2205       0.0000       
 P12                             J4                              J36                                 425.8715      80.0000     121.4327       0.0000       
 P13                             J4                              J61                                 235.3315      80.0000     118.8174       0.0000       
 P14                             J5                              J30                                 247.5953      80.0000     106.9743       0.0000       
 P15                             J5                              J33                                 523.0562      80.0000     131.0490       0.0000       
 P16                             J5                              J49                                 257.7026      80.0000     132.0090       0.0000       
 P17                             J5                              J60                                 292.0349      80.0000     123.8220       0.0000       
 P18                             J6                              J7                                  288.2931      80.0000     127.3873       0.0000       
 P19                             J6                              J38                                 380.8716      80.0000     128.9246       0.0000       
 P20                             J6                              J59                                 282.3734      80.0000     111.3783       0.0000       
 P21                             J6                              J71                                 394.5150      80.0000     130.8477       0.0000       
 P22                             J6                              J82                                 227.0969      80.0000     105.8365       0.0000       
 P23                             J7                              J38                                 418.4920      80.0000     105.9908       0.0000       
 P24                             J7                              J68                                 288.5008      80.0000     129.8579       0.0000       
 P25                             J8                              J24                                 383.5329      80.0000     109.5194       0.0000       
 P26                             J8                              J53                                 371.7243      80.0000     120.7466       0.0000       
 P27                             J8                              J56                                 341.9643      80.0000     133.8883       0.0000       
 P28                             J8                              J57                                 340.3033      80.0000     121.8667       0.0000       
 P29                             J8                              J66                                 269.0224      80.0000     128.2018       0.0000       
 P30                             J9                              J12                                 275.7251     100.0000     136.8569       0.0000       
 P31                             J9                              J17                                 407.7265      80.0000     122.9203       0.0000       
 P32                             J9                              J55                                 348.0926      80.0000     117.9123       0.0000       
 P33                             J9                              J69                                 316.0357      80.0000     107.1050       0.0000       
 P34                             J9                              J74                                 349.3038      80.0000     119.1009       0.0000       
 P35                             J10                             J11                                 341.3019      80.0000     117.2360       0.0000       
 P36                             J10                             J27                                 435.6150      80.0000     134.1194       0.0000       
 P37                             J10                             J37                                 372.5857      80.0000     110.0217       0.0000       
 P38                             J10                             J77                                 236.7136      80.0000     118.5187       0.0000       
 P39                             J11                             J37                                 361.3480      80.0000     113.9275       0.0000       
 P40                             J12                             J55                                 295.4538     200.0000     136.8083       0.0000       
 P41                             J12                             J73                                 289.5368     125.0000     117.4194       0.0000       
 P42                             J12                             J74                                 257.4357      80.0000     125.7552       0.0000       
 P43                             J12                             J83                                 362.8044      80.0000     109.0936       0.0000       
 P44                             J13                             J16                                 287.8524      80.0000     130.4210       0.0000       
 P45                             J13                             J24                                 250.2909      80.0000     118.0556       0.0000       
 P46                             J13                             J46                                 384.6028      80.0000     102.4191       0.0000       
 P47                             J13                             J54                                 398.8488      80.0000     113.9809       0.0000       
 P48                             J13                             J56                                 236.7625      80.0000     116.5347       0.0000       
 P49                             J14                             J35                                 221.0523      80.0000     103.2508       0.0000       
 P50                             J14                             J55                                 237.8682     125.0000     122.9242       0.0000       
 P51                             J14                             J66                                 484.8959     125.0000     132.9315       0.0000       
 P52                             J15                             J46                                 305.3401      80.0000     103.9798       0.0000       
 P53                             J15                             J59                                 475.2084      80.0000     104.2682       0.0000       
 P54                             J16                             J23                                 345.9623      80.0000     112.0772       0.0000       
 P55                             J16                             J24                                 343.6756      80.0000     113.5807       0.0000       
 P56                             J16                             J54                                 356.0504      80.0000     136.3053       0.0000       
 P57                             J16                             J61                                 430.9739      80.0000     100.7277       0.0000       
 P58                             J16                             J63                                 208.0053      80.0000     132.5240       0.0000       
 P59                             J17                             J43                                 426.5570      80.0000     136.8869       0.0000       
 P60                             J17                             J58                                 339.9172      80.0000     105.7818       0.0000       
 P61                             J18                             J52                                 297.5237      80.0000     101.9550       0.0000       
 P62                             J18                             J67                                 327.5522      80.0000     126.8770       0.0000       
 P63                             J18                             J70                                 333.5953      80.0000     139.7984       0.0000       
 P64                             J18                             J75                                 267.0108      80.0000     112.6401       0.0000       
 P65                             J19                             J20                                 448.4887      80.0000     125.1020       0.0000       
 P66                             J19                             J33                                 359.5582      80.0000     128.5906       0.0000       
 P67                             J19                             J41                                 397.3877      80.0000     111.8040       0.0000       
 P68                             J19                             J51                                 329.1430      80.0000     115.3672       0.0000       
 P69                             J19                             J78                                 366.9429      80.0000     107.5337       0.0000       
 P70                             J20                             J34                                 235.6914      80.0000     101.3217       0.0000       
 P71                             J20                             J41                                 236.0821      80.0000     111.1567       0.0000       
 P72                             J20                             J84                                 234.2682      80.0000     135.5770       0.0000       
 P73                             J21                             J26                                 373.4303      80.0000     138.0069       0.0000       
 P74                             J21                             J34                                 337.7628     100.0000     101.0771       0.0000       
 P75                             J21                             J47                                 245.9409      80.0000     116.5655       0.0000       
 P76                             J21                             J57                                 248.4318     100.0000     103.3796       0.0000       
 P77                             J22                             J60                                 249.4142      80.0000     118.9413       0.0000       
 P78                             J22                             J67                                 303.0968      80.0000     133.9219       0.0000       
 P79                             J22                             J70                                 380.8130      80.0000     123.7052       0.0000       
 P80                             J23                             J36                                 370.4548      80.0000     121.3918       0.0000       
 P81                             J23                             J61                                 406.4287      80.0000     130.3523       0.0000       
 P82                             J23                             J63                                 249.3148      80.0000     112.0587       0.0000       
 P83                             J24                             J34                                 437.5535      80.0000     100.7341       0.0000       
 P84                             J24                             J56                                 290.1611      80.0000     121.5108       0.0000       
 P85                             J24                             J57                                 360.7267      80.0000     115.7616       0.0000       
 P86                             J24                             J63                                 388.6083      80.0000     117.4123       0.0000       
 P87                             J25                             J26                                 498.5011      80.0000     109.7949       0.0000       
 P88                             J25                             J35                                 440.9834     125.0000     126.9958       0.0000       
 P89                             J25                             J49                                 453.5149      80.0000     111.7114       0.0000       
 P90                             J25                             J66                                 290.1982      80.0000     116.4018       0.0000       
 P91                             J25                             J70                                 499.1772      80.0000     113.6554       0.0000       
 P92                             J26                             J33                                 562.5466      80.0000     118.8945       0.0000       
 P93                             J26                             J47                                 492.0890      80.0000     132.4937       0.0000       
 P94                             J26                             J49                                 279.4248      80.0000     101.7986       0.0000       
 P95                             J26                             J66                                 492.1466      80.0000     103.2892       0.0000       
 P96                             J27                             J33                                 293.0974      80.0000     133.0056       0.0000       
 P97                             J27                             J37                                 515.5565      80.0000     101.2674       0.0000       
 P98                             J27                             J77                                 454.4415      80.0000     116.0888       0.0000       
 P99                             J28                             J32                                 338.2993      80.0000     100.4199       0.0000       
 P100                            J28                             J59                                 320.8676      80.0000     114.3132       0.0000       
 P101                            J28                             J80                                 297.4120      80.0000     135.3311       0.0000       
 P102                            J28                             J81                                 406.8986      80.0000     106.5733       0.0000       
 P103                            J29                             J37                                 306.5307      80.0000     132.0326       0.0000       
 P104                            J29                             J45                                 531.4805      80.0000     120.7624       0.0000       
 P105                            J29                             J62                                 388.4205      80.0000     137.9900       0.0000       
 P106                            J30                             J62                                 313.2497      80.0000     129.6465       0.0000       
 P107                            J31                             J36                                 369.8300      80.0000     103.4849       0.0000       
 P108                            J31                             J40                                 291.1761      80.0000     135.4697       0.0000       
 P109                            J31                             J42                                 259.4769      80.0000     134.6195       0.0000       
 P110                            J31                             J48                                 397.3314      80.0000     136.1260       0.0000       
 P111                            J31                             J79                                 210.9460      80.0000     113.3536       0.0000       
 P112                            J32                             J59                                 438.6408      80.0000     132.9569       0.0000       
 P113                            J32                             J71                                 287.5919      80.0000     110.3617       0.0000       
 P114                            J33                             J47                                 315.8936      80.0000     107.0109       0.0000       
 P115                            J34                             J47                                 376.2476      80.0000     135.1235       0.0000       
 P116                            J34                             J63                                 348.4414      80.0000     131.8719       0.0000       
 P117                            J34                             J84                                 291.4269      80.0000     133.4821       0.0000       
 P118                            J35                             J55                                 259.4773     125.0000     101.7981       0.0000       
 P119                            J35                             J65                                 277.9363      80.0000     128.3982       0.0000       
 P120                            J36                             J48                                 453.7467      80.0000     137.3332       0.0000       
 P121                            J36                             J50                                 264.0700      80.0000     108.1429       0.0000       
 P122                            J36                             J79                                 367.0637      80.0000     116.4951       0.0000       
 P123                            J37                             J62                                 299.6251      80.0000     120.9668       0.0000       
 P124                            J38                             J44                                 633.6747      80.0000     128.4381       0.0000       
 P125                            J38                             J72                                 567.2000      80.0000     119.1375       0.0000       
 P126                            J38                             J82                                 401.3939      80.0000     121.9855       0.0000       
 P127                            J39                             J48                                 322.1944      80.0000     138.9049       0.0000       
 P128                            J39                             J50                                 561.7146      80.0000     136.0093       0.0000       
 P129                            J40                             J42                                 230.2093      80.0000     132.7363       0.0000       
 P130                            J40                             J76                                 233.6269      80.0000     127.6778       0.0000       
 P131                            J41                             J78                                 507.5364      80.0000     114.8417       0.0000       
 P132                            J41                             J84                                 248.7401      80.0000     109.1399       0.0000       
 P133                            J42                             J48                                 298.8703      80.0000     103.0696       0.0000       
 P134                            J43                             J58                                 303.1693      80.0000     133.7398       0.0000       
 P135                            J44                             J54                                 316.5350      80.0000     128.2800       0.0000       
 P136                            J44                             J61                                 356.2819      80.0000     114.3355       0.0000       
 P137                            J44                             J72                                 280.8015      80.0000     131.1000       0.0000       
 P138                            J45                             J60                                 485.5622      80.0000     125.1740       0.0000       
 P139                            J45                             J62                                 339.2268      80.0000     126.8991       0.0000       
 P140                            J46                             J56                                 412.5619      80.0000     122.9250       0.0000       
 P141                            J46                             J72                                 233.6540      80.0000     118.7454       0.0000       
 P142                            J46                             J82                                 362.2535      80.0000     133.6050       0.0000       
 P143                            J48                             J50                                 455.5003      80.0000     124.4814       0.0000       
 P144                            J49                             J60                                 340.4838      80.0000     109.1092       0.0000       
 P145                            J49                             J70                                 333.3427      80.0000     121.7068       0.0000       
 P146                            J51                             J77                                 414.1044      80.0000     125.2010       0.0000       
 P147                            J51                             J78                                 268.4238      80.0000     104.0410       0.0000       
 P148                            J52                             J64                                 405.7586      80.0000     101.2631       0.0000       
 P149                            J52                             J75                                 306.8387      80.0000     139.9195       0.0000       
 P150                            J53                             J56                                 520.6274      80.0000     106.1985       0.0000       
 P151                            J54                             J61                                 295.5246      80.0000     110.6503       0.0000       
 P152                            J54                             J72                                 242.0918      80.0000     115.6985       0.0000       
 P153                            J57                             J66                                 395.0680     100.0000     111.6162       0.0000       
 P154                            J58                             J64                                 292.3265      80.0000     122.9109       0.0000       
 P155                            J59                             J71                                 336.7127      80.0000     137.7911       0.0000       
 P156                            J59                             J82                                 378.3220      80.0000     122.9939       0.0000       
 P157                            J60                             J70                                 332.6343      80.0000     102.4179       0.0000       
 P158                            J63                             J84                                 406.2506      80.0000     104.0521       0.0000       
 P159                            J64                             J69                                 427.4066      80.0000     116.9397       0.0000       
 P160                            J64                             J75                                 362.4923      80.0000     110.5226       0.0000       
 P161                            J65                             J69                                 351.2590      80.0000     108.6278       0.0000       
 P162                            J65                             J75                                 361.4709      80.0000     121.7114       0.0000       
 P163                            J67                             J70                                 404.8885      80.0000     130.7649       0.0000       
 P164                            J68                             J71                                 276.6816      80.0000     113.1234       0.0000       
 P165                            J69                             J75                                 265.6125      80.0000     138.8719       0.0000       
 P166                            J73                             J83                                 230.3464      80.0000     136.4033       0.0000       
 P167                            J79                             J84                                 224.4451      80.0000     108.6964       0.0000       

[PUMPS]

[VALVES]

[DEMANDS]
 J1                                    0.182037                                
 J2                                    0.448102                                
 J3                                    0.253565                                
 J4                                    0.557149                                
 J5                                    0.654340                                
 J6                                    0.558070                                
 J7                                    0.327637                                
 J8                                    0.602013                                
 J9                                    0.466014                                
 J10                                   0.426393                                
 J11                                   0.246677                                
 J12                                   0.415289                                
 J13                                   0.508176                                
 J14                                   0.558978                                
 J15                                   0.702545                                
 J16                                   0.367977                                
 J17                                   0.431088                                
 J18                                   0.299816                                
 J19                                   0.763707                                
 J20                                   0.350076                                
 J21                                   0.465790                                
 J22                                   0.413847                                
 J23                                   0.390002                                
 J24                                   0.351584                                
 J25                                   0.414327                                
 J26                                   0.342413                                
 J27                                   0.791213                                
 J28                                   0.234682                                
 J29                                   0.618404                                
 J30                                   1.679933                                
 J31                                   0.476158                                
 J32                                   0.706362                                
 J33                                   0.851567                                
 J34                                   0.490830                                
 J35                                   0.232184                                
 J36                                   0.489846                                
 J37                                   0.486586                                
 J38                                   0.542443                                
 J39                                   0.401758                                
 J40                                   0.308675                                
 J41                                   0.293213                                
 J42                                   0.379469                                
 J43                                   0.622647                                
 J44                                   0.263960                                
 J45                                   0.495524                                
 J46                                   0.414146                                
 J47                                   0.650836                                
 J48                                   0.275235                                
 J49                                   0.298973                                
 J50                                   0.292244                                
 J51                                   0.269314                                
 J52                                   0.240324                                
 J53                                   0.584941                                
 J54                                   0.356379                                
 J55                                   0.403432                                
 J56                                   0.280441                                
 J57                                   0.659717                                
 J58                                   0.247267                                
 J59                                   0.462912                                
 J60                                   0.116220                                
 J61                                   0.172464                                
 J62                                   0.326166                                
 J63                                   0.226639                                
 J64                                   0.997311                                
 J65                                   0.366272                                
 J66                                   0.298558                                
 J67                                   0.263070                                
 J68                                   0.355902                                
 J69                                   0.496150                                
 J70                                   0.208424                                
 J71                                   0.340777                                
 J72                                   0.329018                                
 J73                                   0.469803                                
 J74                                   0.355093                                
 J75                                   0.638541                                
 J76                                   0.886304                                
 J77                                   0.253077                                
 J78                                   0.281198                                
 J79                                   0.878893                                
 J80                                   0.564035                                
 J81                                   0.380889                                
 J82                                   0.614858                                
 J83                                   0.788343                                
 J84                                   0.718179                                

[EMITTERS]

[STATUS]

[PATTERNS]

[CURVES]

[CONTROLS]

[RULES]

[QUALITY]

[SOURCES]

[MIXING]

[REACTIONS]
 ORDER  BULK            1.00
 ORDER  WALL            1
 ORDER  TANK            1.00
 GLOBAL BULK            0.000000
 GLOBAL WALL            0.000000

[ENERGY]
 GLOBAL EFFIC        75.0000
 DEMAND CHARGE       0.0000

[TIMES]
 DURATION            0:00:00
 HYDRAULIC TIMESTEP  1:00:00
 QUALITY TIMESTEP    0:06:00
 REPORT TIMESTEP     1:00:00
 REPORT START        0:00:00
 PATTERN TIMESTEP    1:00:00
 PATTERN START       0:00:00
 RULE TIMESTEP       0:06:00
 START CLOCKTIME     0:00:00
 STATISTIC           NONE

[OPTIONS]
 UNITS               LPS
 PRESSURE            METERS
 HEADLOSS            H-W
 UNBALANCED          STOP
 QUALITY             NONE
 DEMAND MULTIPLIER   1.0000
 EMITTER EXPONENT    0.5000
 VISCOSITY           1.000000
 DIFFUSIVITY         1.000000
 SPECIFIC GRAVITY    1.000000
 TRIALS              500
 ACCURACY            0.00000001
 TOLERANCE           0.01000000
 CHECKFREQ           2
 MAXCHECK            10
 DAMPLIMIT           0.00000000

[REPORT]
 PAGESIZE            0
 STATUS              NO
 SUMMARY             YES
 ENERGY              NO
 MESSAGES            YES
 NODES               NONE
 LINKS               NONE
 Elevation           NO
 Demand              PRECISION 2
 Head                PRECISION 2
 Pressure            PRECISION 2
 Quality             PRECISION 2
 Length              NO
 Diameter            NO
 Flow                PRECISION 2
 Velocity            PRECISION 2
 Headloss            PRECISION 2
 Quality             NO
 State               NO
 Setting             NO
 Reaction            NO

[COORDINATES]
 J1                                 1176.511394    2285.667526
 J2                                 2474.412720    2124.701701
 J3                                  881.581528    1924.346943
 J4                                  169.605623     895.303684
 J5                                 1887.317116     833.573347
 J6                                  317.504338    2074.093405
 J7                                  105.877034    2230.763046
 J8                                 1156.411002    1431.386129
 J9                                 1853.028517    2183.797806
 J10                                2024.321957      82.022200
 J11                                2311.581671      16.194482
 J12                                1622.206499    2256.392391
 J13                                 719.005295    1307.269314
 J14                                1432.462921    1852.588307
 J15                                 724.738743    1749.096823
 J16                                 613.333012    1071.268200
 J17                                2030.552870    2469.618725
 J18                                2156.174974    1530.619597
 J19                                1338.364792     356.636672
 J20                                1049.103857     603.988411
 J21                                1257.066213     907.677835
 J22                                2286.336108    1094.047445
 J23                                 489.112044     822.412711
 J24                                 889.958590    1189.264979
 J25                                1613.119993    1419.810364
 J26                                1594.952825    1000.831399
 J27                                1769.095791     402.163960
 J28                                 809.410989    2213.396452
 J29                                2489.396844     337.668088
 J30                                1984.759157     646.714162
 J31                                 573.113505     355.411175
 J32                                 690.452574    2477.058638
 J33                                1561.058735     547.771640
 J34                                 995.010327     802.827472
 J35                                1617.465788    1801.201326
 J36                                 314.410440     527.937920
 J37                                2227.553064     324.210560
 J38                                   8.786184    1887.818268
 J39                                  56.215125      33.895450
 J40                                 748.512379     197.323275
 J41                                 982.446103     424.918971
 J42                                 565.849472     130.657254
 J43                                2383.508773    2414.500387
 J44                                 145.374202    1388.330039
 J45                                2464.129845     787.600239
 J46                                 525.657240    1577.465158
 J47                                1330.791810     687.605672
 J48                                 294.233424     150.788599
 J49                                1823.143903    1063.794349
 J50                                 104.849513     492.834139
 J51                                1452.351090      78.119898
 J52                                2353.933534    1672.509502
 J53                                1132.481060    1779.922045
 J54                                 396.753690    1314.845193
 J55                                1573.729330    2018.902045
 J56                                 861.504901    1443.144474
 J57                                1173.306760    1122.917613
 J58                                2204.921567    2241.477736
 J59                                 531.888879    2150.698265
 J60                                2102.109879     965.722007
 J61                                 234.774136    1098.569853
 J62                                2242.653290     577.520591
 J63                                 698.311646     893.536837
 J64                                2321.308222    2008.239811
 J65                                1848.842465    1711.244220
 J66                                1381.009515    1399.802698
 J67                                2376.696852    1360.971918
 J68                                 186.531234    2463.771497
 J69                                1980.304839    1962.049879
 J70                                2023.294036    1272.174698
 J71                                 425.560844    2408.472644
 J72                                 345.896797    1509.351138
 J73                                1382.138276    2241.561801
 J74                                1705.779331    2463.817035
 J75                                2130.876428    1776.827825
 J76                                 835.390365       9.248104
 J77                                1835.071938      23.008893
 J78                                1238.396408      50.900896
 J79                                 657.161142     532.760078
 J80                                1039.217427    2097.186537
 J81                                1080.994938    2480.257284
 J82                                 388.691884    1880.406851
 J83                                1394.361281    2456.306705
 J84                                 852.652013     577.120063
 R1                                 1344.361281    2406.306705

[VERTICES]

[END]
