[TITLE]

[JUNCTIONS]
 J1                                   21.9742
 J2                                   34.9711
 J3                                   33.0373
 J4                                   33.3628
 J5                                   39.2844
 J6                                   26.3251
 J7                                    6.3774
 J8                                   34.4734
 J9                                   29.3864
 J10                                  33.1367
 J11                                  20.9808
 J12                                  24.4409
 J13                                  26.9345
 J14                                  39.9920
 J15                                  30.8462
 J16                                  35.9201
 J17                                  24.1386
 J18                                  49.7035
 J19                                  29.9166
 J20                                  14.9866
 J21                                  20.1402
 J22                                  22.4007
 J23                                  15.3939
 J24                                  33.6853
 J25                                  23.4299
 J26                                  28.8218
 J27                                  43.1642
 J28                                  12.7296
 J29                                  39.9522
 J30                                  21.9475
 J31                                   0.0000
 J32                                  36.1350
 J33                                  37.1321
 J34                                   6.3588
 J35                                  31.2481
 J36                                  31.2731
 J37                                  33.8489
 J38                                  39.0790
 J39                                  10.1963
 J40                                  27.9829
 J41                                  56.2636
 J42                                  45.0423
 J43                                  43.0605
 J44                                   4.8479
 J45                                  33.6150
 J46                                  13.7859
 J47                                  34.1521
 J48                                   0.1741
 J49                                   9.1325
 J50                                  26.2186
 J51                                  16.6229
 J52                                  40.0029
 J53                                  52.6991
 J54                                  51.4061
 J55                                  49.6363
 J56                                  36.8197
 J57                                  36.3585
 J58                                  26.1995
 J59                                  34.0906
 J60                                  35.9353
 J61                                  35.9475
 J62                                  40.8680
 J63                                  21.8023
 J64                                  21.8013
 J65                                  28.5197
 J66                                  30.0378
 J67                                  30.7325
 J68                                  24.7656
 J69                                  35.2682
 J70                                  39.0398
 J71                                  19.1737
 J72                                  36.2195
 J73                                  18.1412
 J74                                  23.2458
 J75                                  32.3417
 J76                                  26.5590
 J77                                  19.4527
 J78                                  28.6277
 J79                                  47.5057
 J80                                  16.8233
 J81                                  32.0524
 J82                                  37.7284
 J83                                  42.4554
 J84                                  43.1962
 J85                                  28.4932
 J86                                  53.3124
 J87                                  13.7544
 J88                                  35.6475
 J89                                  34.6945
 J90                                  40.1798
 J91                                  58.4142
 J92                                  40.4696
 J93                                  48.9718
 J94                                  43.5547
 J95                                  39.8443
 J96                                  17.9612
 J97                                  23.5191
 J98                                  28.5062
 J99                                  50.5741
 J100                                 21.9953
 J101                                 33.3704
 J102                                 23.0480
 J103                                 37.0497
 J104                                 44.5243
 J105                                 39.8380
 J106                                 16.1251
 J107                                 23.3459
 J108                                 50.8969
 J109                                 51.9851
 J110                                 29.7218
 J111                                  8.8215
 J112                                 31.6713
 J113                                 31.9837
 J114                                 40.6273
 J115                                 36.2455
 J116                                 23.6023

[RESERVOIRS]
 R1                                  124.3845                                

[TANKS]

[PIPES]
 PS1                             R1                              J86                                  50.0000     800.0000     140.0000       0.0000       
 P1                              J1                              J39                                 224.0182      80.0000     115.1066       0.0000       
 P2                              J1                              J44                                 291.9875      80.0000     132.7540       0.0000       
 P3                              J1                              J57                                 308.0158      80.0000     124.8450       0.0000       
 P4                              J1                              J65                                 296.8136      80.0000     114.8004       0.0000       
 P5                              J1                              J96                                 212.6746      80.0000     121.6944       0.0000       
 P6                              J2                              J29                                 341.7401      80.0000     112.4456       0.0000       
 P7                              J2                              J41                                 219.9867     125.0000     109.7488       0.0000       
 P8                              J2                              J63                                 236.7086     125.0000     105.3948       0.0000       
 P9                              J2                              J74                                 303.0398      80.0000     122.1961       0.0000       
 P10                             J2                              J103                                156.5092      80.0000     138.1640       0.0000       
 P11                             J3                              J13                                 210.9375      80.0000     137.7040       0.0000       
 P12                             J3                              J33                                 288.4820      80.0000     121.6083       0.0000       
 P13                             J3                              J47                                 341.1711     100.0000     117.8971       0.0000       
 P14                             J3                              J59                                 167.4685      80.0000     107.3102       0.0000       
 P15                             J3                              J72                                 245.6471      80.0000     128.3990       0.0000       
 P16                             J4                              J9                                  222.3495      80.0000     129.0215       0.0000       
 P17                             J4                              J19                                 216.8985      80.0000     131.8761       0.0000       
 P18                             J4                              J32                                 380.9725      80.0000     123.1043       0.0000       
 P19                             J4                              J33                                 316.2370      80.0000     136.1074       0.0000       
 P20                             J5                              J32                                 256.0534      80.0000     124.5331       0.0000       
 P21                             J5                              J33                                 190.5433      80.0000     111.6060       0.0000       
 P22                             J5                              J36                                 255.0313      80.0000     102.8002       0.0000       
 P23                             J5                              J72                                 150.7047      80.0000     114.0861       0.0000       
 P24                             J6                              J24                                 191.3457      80.0000     125.3616       0.0000       
 P25                             J6                              J62                                 253.0011      80.0000     124.9315       0.0000       
 P26                             J6                              J113                                275.2431      80.0000     119.1723       0.0000       
 P27                             J7                              J23                                 339.9891      80.0000     124.2857       0.0000       
 P28                             J7                              J28                                 195.7007      80.0000     117.3194       0.0000       
 P29                             J7                              J34                                 193.1519      80.0000     116.4807       0.0000       
 P30                             J7                              J66                                 250.1393      80.0000     117.2261       0.0000       
 P31                             J8                              J40                                 287.5431     200.0000     100.5966       0.0000       
 P32                             J8                              J54                                 199.9268     100.0000     108.0144       0.0000       
 P33                             J8                              J63                                 185.1061     125.0000     127.3148       0.0000       
 P34                             J8                              J82                                 234.9694      80.0000     110.1788       0.0000       
 P35                             J8                              J109                                184.1540     200.0000     130.6305       0.0000       
 P36                             J9                              J32                                 286.2194      80.0000     101.1207       0.0000       
 P37                             J9                              J76                                 187.4248      80.0000     109.4286       0.0000       
 P38                             J10                             J98                                 250.1165      80.0000     127.6312       0.0000       
 P39                             J10                             J113                                162.3570      80.0000     138.9895       0.0000       
 P40                             J11                             J15                                 248.4573      80.0000     134.6191       0.0000       
 P41                             J11                             J51                                 241.8459      80.0000     118.3976       0.0000       
 P42                             J11                             J58                                 214.1264      80.0000     105.0621       0.0000       
 P43                             J11                             J64                                 341.3112      80.0000     100.1607       0.0000       
 P44                             J11                             J97                                 152.5487      80.0000     117.7169       0.0000       
 P45                             J12                             J50                                 245.4741      80.0000     113.0602       0.0000       
 P46                             J12                             J106                                222.9842      80.0000     115.7731       0.0000       
 P47                             J12                             J112                                200.7593      80.0000     129.8689       0.0000       
 P48                             J13                             J72                                 274.6745      80.0000     107.9601       0.0000       
 P49                             J13                             J75                                 252.7985      80.0000     113.8711       0.0000       
 P50                             J13                             J78                                 209.8622      80.0000     134.9040       0.0000       
 P51                             J13                             J100                                185.1652      80.0000     125.4543       0.0000       
 P52                             J13                             J116                                257.6687      80.0000     131.2062       0.0000       
 P53                             J14                             J23                                 214.5439      80.0000     118.8404       0.0000       
 P54                             J14                             J56                                 173.4079      80.0000     115.0175       0.0000       
 P55                             J14                             J66                                 347.3520      80.0000     116.8153       0.0000       
 P56                             J14                             J110                                200.5535      80.0000     113.6931       0.0000       
 P57                             J15                             J58                                 239.9352      80.0000     118.1580       0.0000       
 P58                             J15                             J75                                 203.3585      80.0000     133.1184       0.0000       
 P59                             J15                             J78                                 195.8339      80.0000     138.9235       0.0000       
 P60                             J15                             J90                                 367.0390      80.0000     103.7183       0.0000       
 P61                             J15                             J97                                 197.9715      80.0000     123.5812       0.0000       
 P62                             J16                             J54                                 182.3403     200.0000     108.2822       0.0000       
 P63                             J16                             J63                                 228.5137      80.0000     120.4485       0.0000       
 P64                             J16                             J74                                 215.5693     200.0000     127.6503       0.0000       
 P65                             J17                             J27                                 184.1504     125.0000     135.3204       0.0000       
 P66                             J17                             J46                                 214.9098     125.0000     112.6722       0.0000       
 P67                             J17                             J75                                 219.6092      80.0000     123.3404       0.0000       
 P68                             J17                             J77                                 345.4838      80.0000     130.3677       0.0000       
 P69                             J17                             J100                                179.1308      80.0000     131.0987       0.0000       
 P70                             J18                             J25                                 333.1557      80.0000     131.0466       0.0000       
 P71                             J18                             J42                                 264.6943      80.0000     120.3756       0.0000       
 P72                             J18                             J79                                 178.9104      80.0000     116.6046       0.0000       
 P73                             J18                             J95                                 193.3788      80.0000     126.9740       0.0000       
 P74                             J19                             J33                                 347.6195      80.0000     109.5282       0.0000       
 P75                             J19                             J47                                 367.3952      80.0000     112.9955       0.0000       
 P76                             J20                             J25                                 213.3851      80.0000     124.0191       0.0000       
 P77                             J20                             J35                                 320.3818      80.0000     136.3602       0.0000       
 P78                             J20                             J73                                 200.9158      80.0000     124.3081       0.0000       
 P79                             J21                             J65                                 246.2554      80.0000     133.0655       0.0000       
 P80                             J21                             J68                                 191.0661      80.0000     114.6541       0.0000       
 P81                             J21                             J73                                 163.9026      80.0000     125.1128       0.0000       
 P82                             J21                             J107                                223.5046      80.0000     120.9803       0.0000       
 P83                             J22                             J30                                 187.4547      80.0000     120.2655       0.0000       
 P84                             J22                             J49                                 297.7388      80.0000     139.9910       0.0000       
 P85                             J22                             J61                                 157.8696      80.0000     130.7972       0.0000       
 P86                             J23                             J48                                 217.7793      80.0000     108.8349       0.0000       
 P87                             J23                             J56                                 260.7818      80.0000     117.8232       0.0000       
 P88                             J23                             J66                                 355.5117      80.0000     135.2222       0.0000       
 P89                             J24                             J83                                 150.8931      80.0000     113.2007       0.0000       
 P90                             J24                             J95                                 200.8262      80.0000     139.5018       0.0000       
 P91                             J25                             J35                                 331.3012      80.0000     108.5260       0.0000       
 P92                             J25                             J45                                 315.6970      80.0000     122.7878       0.0000       
 P93                             J25                             J79                                 340.6658      80.0000     120.7955       0.0000       
 P94                             J26                             J30                                 247.7908      80.0000     110.4781       0.0000       
 P95                             J26                             J57                                 271.8056      80.0000     113.4570       0.0000       
 P96                             J26                             J68                                 190.4514      80.0000     124.9289       0.0000       
 P97                             J26                             J70                                 293.8164      80.0000     105.4166       0.0000       
 P98                             J27                             J75                                 213.0467      80.0000     134.0287       0.0000       
 P99                             J27                             J90                                 216.2767     125.0000     105.0603       0.0000       
 P100                            J27                             J93                                 322.5313      80.0000     110.3696       0.0000       
 P101                            J28                             J64                                 239.5241      80.0000     112.2669       0.0000       
 P102                            J28                             J71                                 238.8356      80.0000     123.9722       0.0000       
 P103                            J29                             J53                                 243.0659     100.0000     124.5700       0.0000       
 P104                            J29                             J92                                 171.0838     125.0000     137.4353       0.0000       
 P105                            J29                             J98                                 195.5556     150.0000     133.9902       0.0000       
 P106                            J30                             J81                                 168.5349      80.0000     130.4816       0.0000       
 P107                            J30                             J107                                325.3683      80.0000     126.3752       0.0000       
 P108                            J31                             J34                                 284.6398      80.0000     131.4762       0.0000       
 P109                            J31                             J44                                 271.9293      80.0000     139.5493       0.0000       
 P110                            J31                             J48                                 164.3754      80.0000     104.0347       0.0000       
 P111                            J31                             J52                                 350.0963      80.0000     119.5990       0.0000       
 P112                            J31                             J67                                 252.9767     100.0000     126.7870       0.0000       
 P113                            J32                             J36                                 326.0961      80.0000     115.5302       0.0000       
 P114                            J32                             J76                                 261.4746      80.0000     106.7433       0.0000       
 P115                            J32                             J112                                234.6598      80.0000     134.6899       0.0000       
 P116                            J34                             J67                                 253.8146      80.0000     138.3789       0.0000       
 P117                            J34                             J71                                 258.8912      80.0000     138.9909       0.0000       
 P118                            J34                             J90                                 323.0097      80.0000     111.5594       0.0000       
 P119                            J35                             J60                                 179.0206      80.0000     122.1446       0.0000       
 P120                            J35                             J79                                 231.0481      80.0000     122.1288       0.0000       
 P121                            J35                             J107                                194.8933      80.0000     124.4817       0.0000       
 P122                            J36                             J50                                 168.9954      80.0000     122.9815       0.0000       
 P123                            J36                             J72                                 197.0646      80.0000     116.9680       0.0000       
 P124                            J36                             J78                                 256.1174      80.0000     105.2310       0.0000       
 P125                            J36                             J97                                 241.5721      80.0000     126.3101       0.0000       
 P126                            J37                             J69                                 292.5995      80.0000     128.2374       0.0000       
 P127                            J37                             J89                                 262.6065      80.0000     138.0153       0.0000       
 P128                            J37                             J114                                175.3750      80.0000     102.3258       0.0000       
 P129                            J38                             J46                                 313.2831     125.0000     101.8334       0.0000       
 P130                            J38                             J55                                 299.8476     150.0000     137.3100       0.0000       
 P131                            J38                             J59                                 261.3359      80.0000     137.3276       0.0000       
 P132                            J38                             J87                                 303.2698      80.0000     120.4154       0.0000       
 P133                            J38                             J99                                 184.2968      80.0000     120.3077       0.0000       
 P134                            J38                             J105                                291.3801      80.0000     139.4534       0.0000       
 P135                            J38                             J116                                260.9781     100.0000     125.0854       0.0000       
 P136                            J39                             J44                                 199.0418      80.0000     121.2592       0.0000       
 P137                            J39                             J80                                 173.1753      80.0000     127.1764       0.0000       
 P138                            J39                             J96                                 170.6227      80.0000     126.2667       0.0000       
 P139                            J39                             J111                                188.4430      80.0000     114.1242       0.0000       
 P140                            J40                             J63                                 281.7587      80.0000     117.2430       0.0000       
 P141                            J40                             J82                                 236.7164      80.0000     101.7107       0.0000       
 P142                            J40                             J88                                 160.8575     200.0000     139.6936       0.0000       
 P143                            J40                             J101                                202.4383     100.0000     119.3840       0.0000       
 P144                            J40                             J103                                210.7858      80.0000     114.0486       0.0000       
 P145                            J41                             J55                                 222.0929      80.0000     129.1516       0.0000       
 P146                            J41                             J86                                 201.2059     100.0000     130.5490       0.0000       
 P147                            J41                             J99                                 211.9579      80.0000     121.9004       0.0000       
 P148                            J41                             J103                                226.4146      80.0000     137.3279       0.0000       
 P149                            J42                             J45                                 176.2823      80.0000     131.0985       0.0000       
 P150                            J43                             J53                                 186.2226      80.0000     135.5589       0.0000       
 P151                            J43                             J86                                 184.1787      80.0000     113.5763       0.0000       
 P152                            J43                             J104                                201.3026      80.0000     133.7659       0.0000       
 P153                            J44                             J48                                 196.2933      80.0000     115.2539       0.0000       
 P154                            J44                             J111                                218.9733      80.0000     122.4437       0.0000       
 P155                            J46                             J87                                 204.7084      80.0000     109.7197       0.0000       
 P156                            J46                             J100                                209.9827      80.0000     131.4390       0.0000       
 P157                            J46                             J116                                174.2899      80.0000     123.5776       0.0000       
 P158                            J47                             J69                                 187.7464     125.0000     105.4624       0.0000       
 P159                            J48                             J111                                210.8158      80.0000     136.0028       0.0000       
 P160                            J49                             J77                                 166.2306      80.0000     133.0676       0.0000       
 P161                            J49                             J102                                178.7604      80.0000     119.6600       0.0000       
 P162                            J50                             J51                                 215.9355      80.0000     118.3950       0.0000       
 P163                            J50                             J112                                258.4119      80.0000     124.5590       0.0000       
 P164                            J51                             J106                                153.0609      80.0000     131.8486       0.0000       
 P165                            J52                             J57                                 387.5944      80.0000     108.7863       0.0000       
 P166                            J52                             J67                                 251.0938      80.0000     102.6516       0.0000       
 P167                            J52                             J93                                 218.4848      80.0000     136.5066       0.0000       
 P168                            J53                             J86                                 247.9321      80.0000     133.0516       0.0000       
 P169                            J53                             J92                                 248.4405      80.0000     106.5257       0.0000       
 P170                            J53                             J104                                189.0841     100.0000     134.5904       0.0000       
 P171                            J54                             J91                                 288.4620     200.0000     137.8083       0.0000       
 P172                            J54                             J109                                149.5230     100.0000     101.7286       0.0000       
 P173                            J55                             J88                                 191.2241     200.0000     132.4176       0.0000       
 P174                            J55                             J99                                 212.7743      80.0000     114.9860       0.0000       
 P175                            J55                             J103                                256.9734      80.0000     107.1317       0.0000       
 P176                            J56                             J111                                299.5840      80.0000     137.8020       0.0000       
 P177                            J57                             J68                                 248.6861      80.0000     134.4960       0.0000       
 P178                            J58                             J71                                 170.0851      80.0000     119.6662       0.0000       
 P179                            J58                             J90                                 286.8914      80.0000     112.5815       0.0000       
 P180                            J59                             J105                                204.4907      80.0000     131.3810       0.0000       
 P181                            J59                             J116                                160.4283      80.0000     118.9437       0.0000       
 P182                            J60                             J79                                 226.5433      80.0000     125.6961       0.0000       
 P183                            J60                             J81                                 160.2263      80.0000     136.4842       0.0000       
 P184                            J60                             J94                                 165.4918     100.0000     114.4848       0.0000       
 P185                            J60                             J107                                212.1240      80.0000     122.5428       0.0000       
 P186                            J61                             J104                                169.0319     100.0000     110.0033       0.0000       
 P187                            J62                             J83                                 281.2557     100.0000     115.3677       0.0000       
 P188                            J62                             J92                                 212.0351     100.0000     103.6225       0.0000       
 P189                            J62                             J104                                188.7501      80.0000     130.3651       0.0000       
 P190                            J62                             J113                                245.9009      80.0000     102.1480       0.0000       
 P191                            J63                             J103                                269.9911      80.0000     119.7764       0.0000       
 P192                            J64                             J71                                 225.0222      80.0000     108.3562       0.0000       
 P193                            J65                             J73                                 255.7922      80.0000     138.7561       0.0000       
 P194                            J67                             J90                                 196.2850     100.0000     116.4225       0.0000       
 P195                            J67                             J93                                 343.6290      80.0000     121.6856       0.0000       
 P196                            J68                             J107                                160.8804      80.0000     124.5829       0.0000       
 P197                            J69                             J89                                 214.4388     150.0000     115.2549       0.0000       
 P198                            J69                             J105                                164.0530      80.0000     117.3056       0.0000       
 P199                            J70                             J77                                 192.2412      80.0000     114.8750       0.0000       
 P200                            J70                             J93                                 181.6148      80.0000     132.8532       0.0000       
 P201                            J71                             J90                                 317.0738      80.0000     109.3491       0.0000       
 P202                            J72                             J78                                 278.3849      80.0000     108.4853       0.0000       
 P203                            J74                             J98                                 230.1289     200.0000     100.5366       0.0000       
 P204                            J75                             J100                                178.3430      80.0000     113.1679       0.0000       
 P205                            J76                             J85                                 182.8102      80.0000     116.7376       0.0000       
 P206                            J76                             J112                                272.1896      80.0000     138.6635       0.0000       
 P207                            J78                             J97                                 199.5294      80.0000     108.1477       0.0000       
 P208                            J79                             J94                                 219.6242      80.0000     128.3971       0.0000       
 P209                            J80                             J111                                171.7465      80.0000     103.0118       0.0000       
 P210                            J81                             J94                                 179.5161      80.0000     100.1933       0.0000       
 P211                            J82                             J84                                 233.2107      80.0000     108.1977       0.0000       
 P212                            J82                             J101                                258.7543     150.0000     128.3619       0.0000       
 P213                            J82                             J108                                193.8372      80.0000     110.1999       0.0000       
 P214                            J82                             J109                                295.1053     150.0000     122.5142       0.0000       
 P215                            J83                             J94                                 158.4108     100.0000     114.1579       0.0000       
 P216                            J84                             J101                                187.2078      80.0000     113.5814       0.0000       
 P217                            J84                             J114                                200.8954      80.0000     134.2254       0.0000       
 P218                            J85                             J112                                283.3891      80.0000     132.0735       0.0000       
 P219                            J86                             J99                                 227.7822      80.0000     105.0133       0.0000       
 P220                            J86                             J102                                247.1827     100.0000     130.9387       0.0000       
 P221                            J86                             J115                                186.6549      80.0000     113.2783       0.0000       
 P222                            J87                             J102                                221.2944      80.0000     130.4563       0.0000       
 P223                            J87                             J115                                199.4266      80.0000     132.4985       0.0000       
 P224                            J88                             J89                                 195.5396      80.0000     124.1170       0.0000       
 P225                            J88                             J101                                225.0944     100.0000     109.6075       0.0000       
 P226                            J88                             J103                                219.4731      80.0000     115.0719       0.0000       
 P227                            J89                             J101                                188.7127     150.0000     135.8663       0.0000       
 P228                            J91                             J109                                255.6996     250.0000     127.8567       0.0000       
 P229                            J92                             J113                                165.8716      80.0000     105.2666       0.0000       
 P230                            J99                             J115                                165.6820      80.0000     134.7824       0.0000       
 P231                            J100                            J116                                232.8900      80.0000     100.5946       0.0000       
 P232                            J101                            J114                                212.3266      80.0000     136.8417       0.0000       
 P233                            J102                            J115                                184.8707      80.0000     109.8715       0.0000       
 P234                            J108                            J109                                248.3927      80.0000     100.2242       0.0000       

[PUMPS]

[VALVES]

[DEMANDS]
 J1                                    0.580303                                
 J2                                    0.599564                                
 J3                                    0.515696                                
 J4                                    0.611109                                
 J5                                    0.353249                                
 J6                                    0.262803                                
 J7                                    1.344016                                
 J8                                    0.200127                                
 J9                                    0.321806                                
 J10                                   0.187842                                
 J11                                   0.261165                                
 J12                                   0.223257                                
 J13                                   0.486207                                
 J14                                   1.130514                                
 J15                                   0.509490                                
 J16                                   0.293146                                
 J17                                   1.070538                                
 J18                                   0.407221                                
 J19                                   1.044588                                
 J20                                   0.453801                                
 J21                                   1.328276                                
 J22                                   0.824339                                
 J23                                   0.750151                                
 J24                                   0.286771                                
 J25                                   0.324302                                
 J26                                   1.317306                                
 J27                                   0.441052                                
 J28                                   0.368256                                
 J29                                   0.286995                                
 J30                                   0.299602                                
 J31                                   0.298213                                
 J32                                   0.286025                                
 J33                                   1.006895                                
 J34                                   0.443014                                
 J35                                   0.995889                                
 J36                                   0.405609                                
 J37                                   0.443839                                
 J38                                   0.509766                                
 J39                                   0.257071                                
 J40                                   0.619120                                
 J41                                   0.387125                                
 J42                                   0.509050                                
 J43                                   0.563396                                
 J44                                   0.561407                                
 J45                                   0.287819                                
 J46                                   0.362885                                
 J47                                   0.577703                                
 J48                                   0.395171                                
 J49                                   0.583938                                
 J50                                   1.029048                                
 J51                                   0.584948                                
 J52                                   0.491013                                
 J53                                   0.389395                                
 J54                                   0.354557                                
 J55                                   0.739681                                
 J56                                   1.055492                                
 J57                                   0.446187                                
 J58                                   0.317897                                
 J59                                   0.612688                                
 J60                                   0.387506                                
 J61                                   0.860617                                
 J62                                   0.308271                                
 J63                                   0.533321                                
 J64                                   1.876841                                
 J65                                   0.733085                                
 J66                                   1.102144                                
 J67                                   0.385346                                
 J68                                   0.361887                                
 J69                                   0.347300                                
 J70                                   1.552723                                
 J71                                   0.468862                                
 J72                                   1.094365                                
 J73                                   0.511654                                
 J74                                   0.820705                                
 J75                                   0.423556                                
 J76                                   0.786057                                
 J77                                   0.527524                                
 J78                                   0.239579                                
 J79                                   0.347356                                
 J80                                   0.705480                                
 J81                                   0.237457                                
 J82                                   0.783680                                
 J83                                   0.285229                                
 J84                                   0.482903                                
 J85                                   0.493392                                
 J86                                   0.571646                                
 J87                                   0.781221                                
 J88                                   0.338981                                
 J89                                   0.580211                                
 J90                                   0.282891                                
 J91                                   0.392535                                
 J92                                   0.457657                                
 J93                                   1.435967                                
 J94                                   1.009186                                
 J95                                   0.538269                                
 J96                                   0.351073                                
 J97                                   0.200093                                
 J98                                   0.810802                                
 J99                                   0.244201                                
 J100                                  0.184236                                
 J101                                  1.304863                                
 J102                                  1.807668                                
 J103                                  0.562210                                
 J104                                  0.439722                                
 J105                                  1.635467                                
 J106                                  0.631386                                
 J107                                  0.392354                                
 J108                                  0.587111                                
 J109                                  0.454764                                
 J110                                  0.453239                                
 J111                                  0.487699                                
 J112                                  0.529222                                
 J113                                  0.530006                                
 J114                                  0.298783                                
 J115                                  0.411807                                
 J116                                  0.640880                                

[EMITTERS]

[STATUS]

[PATTERNS]

[CURVES]

[CONTROLS]

[RULES]

[QUALITY]

[SOURCES]

[MIXING]

[REACTIONS]
 ORDER  BULK            1.00
 ORDER  WALL            1
 ORDER  TANK            1.00
 GLOBAL BULK            0.000000
 GLOBAL WALL            0.000000

[ENERGY]
 GLOBAL EFFIC        75.0000
 DEMAND CHARGE       0.0000

[TIMES]
 DURATION            0:00:00
 HYDRAULIC TIMESTEP  1:00:00
 QUALITY TIMESTEP    0:06:00
 REPORT TIMESTEP     1:00:00
 REPORT START        0:00:00
 PATTERN TIMESTEP    1:00:00
 PATTERN START       0:00:00
 RULE TIMESTEP       0:06:00
 START CLOCKTIME     0:00:00
 STATISTIC           NONE

[OPTIONS]
 UNITS               LPS
 PRESSURE            METERS
 HEADLOSS            H-W
 UNBALANCED          STOP
 QUALITY             NONE
 DEMAND MULTIPLIER   1.0000
 EMITTER EXPONENT    0.5000
 VISCOSITY           1.000000
 DIFFUSIVITY         1.000000
 SPECIFIC GRAVITY    1.000000
 TRIALS              500
 ACCURACY            0.00000001
 TOLERANCE           0.01000000
 CHECKFREQ           2
 MAXCHECK            10
 DAMPLIMIT           0.00000000

[REPORT]
 PAGESIZE            0
 STATUS              NO
 SUMMARY             YES
 ENERGY              NO
 MESSAGES            YES
 NODES               NONE
 LINKS               NONE
 Elevation           NO
 Demand              PRECISION 2
 Head                PRECISION 2
 Pressure            PRECISION 2
 Quality             PRECISION 2
 Length              NO
 Diameter            NO
 Flow                PRECISION 2
 Velocity            PRECISION 2
 Headloss            PRECISION 2
 Quality             NO
 State               NO
 Setting             NO
 Reaction            NO

[COORDINATES]
 J1                                  895.969597     166.854234
 J2                                 1651.133877    1454.493289
 J3                                  789.301086    1493.297839
 J4                                  563.976777    2008.516743
 J5                                  548.336360    1669.038747
 J6                                 2002.921180     793.514836
 J7                                  228.314735     580.844768
 J8                                 1800.214081    1784.074978
 J9                                  366.726133    2011.706668
 J10                                2069.912296    1108.527178
 J11                                 273.412855    1177.165018
 J12                                  53.319217    1602.460570
 J13                                 703.288784    1329.749320
 J14                                 173.020921     161.143307
 J15                                 498.284449    1154.896662
 J16                                1959.620034    1648.530234
 J17                                 845.467060    1048.610414
 J18                                1917.080642     334.237602
 J19                                 755.316440    2035.423864
 J20                                1556.794026      55.785009
 J21                                1324.989153     199.632386
 J22                                1422.317345     783.015531
 J23                                 319.174295     300.400255
 J24                                1963.330524     635.548650
 J25                                1734.454162      83.352339
 J26                                1215.362215     515.202903
 J27                                 718.075646     935.841744
 J28                                 150.974231     723.439799
 J29                                1791.176483    1210.303339
 J30                                1393.673423     635.116649
 J31                                 512.492089     452.226967
 J32                                 364.106260    1766.183091
 J33                                 702.526317    1751.699083
 J34                                 367.611478     656.160359
 J35                                1616.031803     321.421603
 J36                                 415.300165    1501.955630
 J37                                1161.315213    1996.284025
 J38                                1132.418353    1379.828334
 J39                                 706.793346     111.621450
 J40                                1540.405935    1731.503068
 J41                                1463.700324    1374.797645
 J42                                2065.606189     165.069319
 J43                                1479.198011    1028.014726
 J44                                 662.183738     292.173421
 J45                                1989.898196      36.915719
 J46                                 966.149897    1181.986869
 J47                                 928.502499    1740.934448
 J48                                 496.778120     308.100525
 J49                                1187.873711     921.643993
 J50                                 262.087407    1530.926469
 J51                                 160.125941    1353.533242
 J52                                 790.114238     539.467530
 J53                                1621.135603    1076.100191
 J54                                1960.189598    1811.780696
 J55                                1333.219817    1533.552601
 J56                                 289.982058      65.940102
 J57                                1054.900271     364.168813
 J58                                 348.084692    1008.779263
 J59                                 936.397385    1486.793553
 J60                                1595.822742     475.430780
 J61                                1566.678186     786.510935
 J62                                1801.124211     900.304434
 J63                                1766.460235    1616.661545
 J64                                  84.803229     930.080632
 J65                                1148.013118      76.448637
 J66                                  57.861470     418.469424
 J67                                 592.736041     672.383028
 J68                                1291.635000     371.234035
 J69                                1082.424106    1744.146876
 J70                                1024.300171     673.649538
 J71                                 279.205625     885.449053
 J72                                 587.173005    1537.050916
 J73                                1385.173415      64.302594
 J74                                1904.549628    1483.533735
 J75                                 660.239341    1116.465323
 J76                                 223.353258    1961.655881
 J77                                1057.567174     851.535551
 J78                                 520.165879    1322.942737
 J79                                1784.669940     400.056689
 J80                                 597.920412       3.209384
 J81                                1536.735211     598.964589
 J82                                1625.865522    1909.919609
 J83                                1820.621414     645.407344
 J84                                1469.031934    2013.455270
 J85                                  78.947709    1937.876565
 J86                                1440.249328    1187.167190
 J87                                1126.034344    1123.287434
 J88                                1414.604586    1680.500434
 J89                                1267.325562    1783.266108
 J90                                 563.807798     844.628836
 J91                                2023.543130    2052.533668
 J92                                1828.089886    1077.376179
 J93                                 881.917757     704.800719
 J94                                1696.974338     571.150692
 J95                                2028.053540     467.913859
 J96                                 812.196027      10.722243
 J97                                 364.908555    1280.651492
 J98                                1959.543680    1280.702014
 J99                                1288.430554    1335.924124
 J100                                788.231061    1200.599776
 J101                               1399.410149    1862.723241
 J102                               1312.006440    1026.040933
 J103                               1542.845504    1544.379236
 J104                               1624.943442     912.330836
 J105                               1047.805448    1611.235753
 J106                                 23.183464    1398.225014
 J107                               1441.991362     376.737802
 J108                               1699.238555    2071.148974
 J109                               1867.550661    1919.773699
 J110                                 10.882326      85.674380
 J111                                555.503149     148.010518
 J112                                175.560775    1727.870433
 J113                               1961.718146    1021.320436
 J114                               1307.664975    2025.707804
 J115                               1276.681888    1189.023554
 J116                                923.113496    1338.803467
 R1                                 1390.249328    1137.167190

[VERTICES]

[END]
