[TITLE]

[JUNCTIONS]
 J1                                    1.7161
 J2                                   14.8107
 J3                                   13.6171
 J4                                   16.1977
 J5                                   15.7572
 J6                                   19.2832
 J7                                   20.0488
 J8                                    7.1742
 J9                                   13.1107
 J10                                   2.2198
 J11                                  17.7295
 J12                                   7.0909
 J13                                  11.2742
 J14                                   5.4248
 J15                                  14.7175
 J16                                   5.5805
 J17                                   8.6905
 J18                                   5.3974
 J19                                  16.3141
 J20                                   2.2616
 J21                                  16.8791
 J22                                   4.8171
 J23                                   5.7777
 J24                                   3.1899
 J25                                   7.1816
 J26                                   8.8098
 J27                                  10.4439
 J28                                   9.7556
 J29                                   4.1245
 J30                                   7.2134
 J31                                   9.7576
 J32                                  10.5753
 J33                                  21.0524
 J34                                   6.7050
 J35                                   8.8161
 J36                                  12.3097
 J37                                  15.6988
 J38                                   7.9600
 J39                                   8.3749
 J40                                   6.5114
 J41                                  11.9079
 J42                                   9.6283
 J43                                  10.5594
 J44                                  12.3068
 J45                                  11.7725
 J46                                  12.0050
 J47                                  10.6263
 J48                                   5.6684
 J49                                  10.6509
 J50                                  22.0827
 J51                                   6.7339
 J52                                   7.1548
 J53                                  10.7865
 J54                                   8.0002
 J55                                  10.4467
 J56                                  24.0807
 J57                                   4.0121
 J58                                  12.2250
 J59                                   9.8712
 J60                                  17.3517
 J61                                  16.0000
 J62                                   2.0943
 J63                                   8.7735
 J64                                   1.1616
 J65                                   7.2539
 J66                                  14.0915
 J67                                   7.2096
 J68                                  11.9460
 J69                                   1.7379
 J70                                   7.8127
 J71                                  21.7502
 J72                                   6.5309
 J73                                  14.9385
 J74                                   4.1003
 J75                                  12.4806
 J76                                   2.5352
 J77                                   5.0297
 J78                                   8.0215
 J79                                   5.7328
 J80                                   6.0913
 J81                                   8.8654
 J82                                  13.1062
 J83                                  25.3852
 J84                                  13.1578
 J85                                   0.0000
 J86                                  16.6252
 J87                                  18.7696

[RESERVOIRS]
 R1                                   86.7190                                
 R2                                   88.0235                                

[TANKS]

[PIPES]
 PS1                             R1                              J56                                  50.0000     800.0000     140.0000       0.0000       
 PS2                             R2                              J83                                  50.0000     800.0000     140.0000       0.0000       
 P1                              J1                              J9                                  477.0403     100.0000     101.3782       0.0000       
 P2                              J1                              J22                                 438.3456      80.0000     104.4482       0.0000       
 P3                              J1                              J55                                 783.7999     125.0000     118.0796       0.0000       
 P4                              J1                              J79                                 451.6701      80.0000     100.1248       0.0000       
 P5                              J2                              J24                                 873.7859      80.0000     113.7308       0.0000       
 P6                              J2                              J43                                 633.1092      80.0000     111.6676       0.0000       
 P7                              J2                              J45                                 540.7885      80.0000     117.5219       0.0000       
 P8                              J2                              J61                                 695.3691      80.0000     123.0864       0.0000       
 P9                              J3                              J8                                  675.6497      80.0000     105.5863       0.0000       
 P10                             J3                              J13                                 492.9522      80.0000     139.2109       0.0000       
 P11                             J3                              J27                                 621.6162      80.0000     122.8207       0.0000       
 P12                             J3                              J38                                 723.2795      80.0000     131.0623       0.0000       
 P13                             J3                              J63                                 631.1624      80.0000     111.4543       0.0000       
 P14                             J3                              J82                                 754.9334      80.0000     133.9649       0.0000       
 P15                             J4                              J13                                 610.0186     125.0000     101.9693       0.0000       
 P16                             J4                              J54                                 619.1607      80.0000     138.4935       0.0000       
 P17                             J4                              J58                                 586.9482     125.0000     102.2986       0.0000       
 P18                             J4                              J82                                 672.3653      80.0000     118.3534       0.0000       
 P19                             J5                              J24                                 821.7270      80.0000     126.8913       0.0000       
 P20                             J5                              J33                                 459.4981      80.0000     103.1177       0.0000       
 P21                             J5                              J40                                 532.2848      80.0000     117.0117       0.0000       
 P22                             J6                              J19                                 654.4039      80.0000     102.0136       0.0000       
 P23                             J6                              J50                                 638.3355      80.0000     133.8770       0.0000       
 P24                             J6                              J73                                 582.8106      80.0000     116.8090       0.0000       
 P25                             J6                              J78                                 659.8713      80.0000     129.6402       0.0000       
 P26                             J7                              J26                                 443.1906      80.0000     123.5252       0.0000       
 P27                             J7                              J28                                 621.4779      80.0000     120.8838       0.0000       
 P28                             J7                              J56                                 636.2275      80.0000     122.7121       0.0000       
 P29                             J8                              J51                                 694.6003      80.0000     133.7885       0.0000       
 P30                             J8                              J63                                 532.5472      80.0000     120.1293       0.0000       
 P31                             J8                              J79                                1037.7219      80.0000     113.7531       0.0000       
 P32                             J8                              J82                                 408.3069      80.0000     136.0456       0.0000       
 P33                             J9                              J11                                 789.3064      80.0000     136.0305       0.0000       
 P34                             J9                              J79                                 473.2894      80.0000     109.0432       0.0000       
 P35                             J10                             J34                                 787.4768      80.0000     124.1002       0.0000       
 P36                             J10                             J62                                 573.2897      80.0000     125.7906       0.0000       
 P37                             J11                             J47                                 716.9186      80.0000     111.6442       0.0000       
 P38                             J11                             J68                                 583.9611      80.0000     115.0632       0.0000       
 P39                             J11                             J85                                 634.0655      80.0000     138.8581       0.0000       
 P40                             J12                             J25                                 653.5040      80.0000     105.3710       0.0000       
 P41                             J12                             J49                                 580.0103      80.0000     118.4410       0.0000       
 P42                             J12                             J52                                 691.0432      80.0000     130.9997       0.0000       
 P43                             J12                             J57                                 604.1239      80.0000     123.1665       0.0000       
 P44                             J12                             J77                                 602.4982      80.0000     118.7322       0.0000       
 P45                             J12                             J80                                 560.7492      80.0000     133.7777       0.0000       
 P46                             J13                             J32                                 736.9106      80.0000     124.4965       0.0000       
 P47                             J13                             J38                                 682.8322     100.0000     137.7479       0.0000       
 P48                             J13                             J54                                 649.9150      80.0000     124.9293       0.0000       
 P49                             J14                             J16                                 491.7699      80.0000     128.2018       0.0000       
 P50                             J14                             J34                                 763.3106      80.0000     139.2775       0.0000       
 P51                             J14                             J39                                 743.4193      80.0000     109.2997       0.0000       
 P52                             J14                             J62                                 687.7709      80.0000     139.4713       0.0000       
 P53                             J15                             J28                                 929.2765      80.0000     139.8585       0.0000       
 P54                             J15                             J48                                 526.5499      80.0000     135.4335       0.0000       
 P55                             J15                             J83                                 555.0884      80.0000     120.5666       0.0000       
 P56                             J15                             J87                                 682.6510      80.0000     137.7976       0.0000       
 P57                             J16                             J29                                1058.9880      80.0000     134.0856       0.0000       
 P58                             J16                             J76                                 566.6176      80.0000     133.1639       0.0000       
 P59                             J17                             J20                                 939.2033      80.0000     113.6670       0.0000       
 P60                             J17                             J35                                1097.0602      80.0000     121.3625       0.0000       
 P61                             J17                             J39                                 755.5382      80.0000     121.9663       0.0000       
 P62                             J17                             J59                                1006.2022      80.0000     137.2196       0.0000       
 P63                             J17                             J74                                 820.0290      80.0000     102.7792       0.0000       
 P64                             J17                             J77                                 839.9664      80.0000     109.2551       0.0000       
 P65                             J18                             J24                                 464.0000      80.0000     136.7082       0.0000       
 P66                             J18                             J41                                 929.7492      80.0000     123.4772       0.0000       
 P67                             J19                             J32                                 799.6459      80.0000     117.3589       0.0000       
 P68                             J19                             J37                                 619.9766     100.0000     122.2063       0.0000       
 P69                             J19                             J53                                1038.6369      80.0000     139.9052       0.0000       
 P70                             J19                             J54                                 759.3346     125.0000     132.7910       0.0000       
 P71                             J20                             J57                                 405.5032      80.0000     137.6703       0.0000       
 P72                             J20                             J77                                 578.4040      80.0000     126.3818       0.0000       
 P73                             J21                             J65                                 568.1297      80.0000     105.6216       0.0000       
 P74                             J21                             J66                                 469.0961      80.0000     101.0209       0.0000       
 P75                             J21                             J67                                 682.0526      80.0000     139.2326       0.0000       
 P76                             J22                             J60                                 528.2120      80.0000     134.0899       0.0000       
 P77                             J22                             J82                                 739.3003      80.0000     101.4919       0.0000       
 P78                             J23                             J40                                 527.1575      80.0000     113.8819       0.0000       
 P79                             J23                             J46                                 670.6603     100.0000     106.8990       0.0000       
 P80                             J23                             J67                                 499.2594      80.0000     127.9569       0.0000       
 P81                             J23                             J70                                 458.8343      80.0000     138.5327       0.0000       
 P82                             J24                             J40                                 821.8371      80.0000     127.5690       0.0000       
 P83                             J24                             J70                                 630.8909      80.0000     108.2361       0.0000       
 P84                             J25                             J52                                 502.3025      80.0000     130.0363       0.0000       
 P85                             J25                             J59                                 531.7872      80.0000     112.2265       0.0000       
 P86                             J25                             J63                                 907.2327      80.0000     137.4484       0.0000       
 P87                             J25                             J77                                 690.4935      80.0000     110.2778       0.0000       
 P88                             J26                             J28                                 717.1391      80.0000     138.4391       0.0000       
 P89                             J26                             J48                                 449.3174      80.0000     112.1658       0.0000       
 P90                             J26                             J56                                 805.1005      80.0000     100.6944       0.0000       
 P91                             J26                             J75                                 829.1615      80.0000     129.4929       0.0000       
 P92                             J27                             J31                                 485.0482      80.0000     106.2027       0.0000       
 P93                             J27                             J38                                 606.6215      80.0000     101.5600       0.0000       
 P94                             J27                             J63                                 641.8079      80.0000     111.2954       0.0000       
 P95                             J29                             J31                                 808.6386      80.0000     105.3349       0.0000       
 P96                             J29                             J35                                 669.7029      80.0000     131.3023       0.0000       
 P97                             J29                             J36                                 678.7158      80.0000     122.9890       0.0000       
 P98                             J29                             J76                                 913.8617      80.0000     103.2065       0.0000       
 P99                             J29                             J81                                 739.2992      80.0000     105.9542       0.0000       
 P100                            J30                             J48                                 428.6969      80.0000     133.1542       0.0000       
 P101                            J30                             J58                                 447.1807      80.0000     106.3371       0.0000       
 P102                            J30                             J75                                 572.6142      80.0000     118.8753       0.0000       
 P103                            J30                             J87                                 482.6003      80.0000     115.9243       0.0000       
 P104                            J31                             J35                                 451.3888      80.0000     102.6930       0.0000       
 P105                            J31                             J59                                 458.8794      80.0000     106.5965       0.0000       
 P106                            J32                             J37                                 650.6252      80.0000     112.4478       0.0000       
 P107                            J32                             J54                                 904.4129      80.0000     127.4438       0.0000       
 P108                            J32                             J84                                 497.4213      80.0000     101.1257       0.0000       
 P109                            J33                             J71                                 532.2224      80.0000     117.6810       0.0000       
 P110                            J33                             J86                                 534.3894      80.0000     137.2022       0.0000       
 P111                            J34                             J72                                 604.2668      80.0000     105.0606       0.0000       
 P112                            J36                             J43                                 592.8950      80.0000     114.4882       0.0000       
 P113                            J36                             J61                                 449.8472      80.0000     139.7523       0.0000       
 P114                            J36                             J81                                 495.2642      80.0000     138.1976       0.0000       
 P115                            J37                             J42                                 797.8642      80.0000     115.9916       0.0000       
 P116                            J37                             J46                                 499.3272     100.0000     113.6427       0.0000       
 P117                            J38                             J81                                 572.5100     100.0000     101.4262       0.0000       
 P118                            J38                             J84                                 700.7888      80.0000     104.4831       0.0000       
 P119                            J39                             J72                                 426.1316      80.0000     130.9782       0.0000       
 P120                            J39                             J74                                 430.3315      80.0000     114.1522       0.0000       
 P121                            J40                             J67                                 533.5209      80.0000     103.2097       0.0000       
 P122                            J40                             J70                                 651.3682      80.0000     109.4048       0.0000       
 P123                            J40                             J71                                 920.0557      80.0000     118.2860       0.0000       
 P124                            J41                             J45                                 636.3940      80.0000     114.1243       0.0000       
 P125                            J41                             J62                                 867.2535      80.0000     106.4014       0.0000       
 P126                            J42                             J46                                 746.9708      80.0000     138.5612       0.0000       
 P127                            J42                             J53                                 478.6068      80.0000     129.6234       0.0000       
 P128                            J42                             J65                                 569.5566      80.0000     102.9493       0.0000       
 P129                            J42                             J66                                 541.1209      80.0000     106.5361       0.0000       
 P130                            J43                             J45                                 530.8671      80.0000     106.9562       0.0000       
 P131                            J43                             J61                                 704.0238      80.0000     120.1101       0.0000       
 P132                            J43                             J76                                 623.1819      80.0000     115.1926       0.0000       
 P133                            J44                             J47                                 601.4440      80.0000     117.6296       0.0000       
 P134                            J44                             J49                                 608.4835      80.0000     128.2330       0.0000       
 P135                            J44                             J51                                 392.2051      80.0000     122.5781       0.0000       
 P136                            J45                             J62                                 813.1016      80.0000     122.4128       0.0000       
 P137                            J45                             J76                                 625.1595      80.0000     116.1324       0.0000       
 P138                            J46                             J61                                 885.9800      80.0000     134.8230       0.0000       
 P139                            J46                             J65                                 634.3012      80.0000     120.9773       0.0000       
 P140                            J46                             J84                                 773.5982      80.0000     119.5156       0.0000       
 P141                            J47                             J49                                 794.3989      80.0000     100.4996       0.0000       
 P142                            J47                             J64                                 483.8053      80.0000     101.7314       0.0000       
 P143                            J48                             J75                                 709.7453      80.0000     107.1896       0.0000       
 P144                            J49                             J52                                 447.2258      80.0000     118.1372       0.0000       
 P145                            J49                             J69                                 963.7649      80.0000     137.9072       0.0000       
 P146                            J49                             J80                                 678.6068      80.0000     105.0958       0.0000       
 P147                            J50                             J56                                 423.0876      80.0000     115.8141       0.0000       
 P148                            J50                             J73                                 597.5324      80.0000     135.4194       0.0000       
 P149                            J50                             J75                                 692.4094      80.0000     138.3930       0.0000       
 P150                            J51                             J68                                 458.1594      80.0000     125.5585       0.0000       
 P151                            J52                             J63                                 886.5059      80.0000     129.0953       0.0000       
 P152                            J53                             J66                                 615.4064      80.0000     128.7272       0.0000       
 P153                            J53                             J73                                 700.0553      80.0000     109.6572       0.0000       
 P154                            J54                             J58                                 724.7049     125.0000     133.7910       0.0000       
 P155                            J54                             J78                                 563.4548      80.0000     135.6909       0.0000       
 P156                            J55                             J60                                 458.4030      80.0000     104.9494       0.0000       
 P157                            J55                             J83                                 614.4157     150.0000     103.4339       0.0000       
 P158                            J56                             J75                                 607.9902      80.0000     107.7029       0.0000       
 P159                            J57                             J77                                 576.1238      80.0000     120.8295       0.0000       
 P160                            J57                             J80                                 650.3662      80.0000     135.3759       0.0000       
 P161                            J58                             J78                                 577.3005      80.0000     128.9020       0.0000       
 P162                            J58                             J87                                 484.5975     200.0000     121.9806       0.0000       
 P163                            J60                             J87                                 754.1932      80.0000     114.7874       0.0000       
 P164                            J61                             J70                                 626.0177      80.0000     120.4495       0.0000       
 P165                            J62                             J76                                 584.2940      80.0000     123.2307       0.0000       
 P166                            J64                             J69                                 573.3777      80.0000     133.8138       0.0000       
 P167                            J64                             J85                                 449.8682      80.0000     132.3126       0.0000       
 P168                            J65                             J66                                 617.9814      80.0000     101.9105       0.0000       
 P169                            J65                             J67                                 413.8180      80.0000     116.1967       0.0000       
 P170                            J68                             J79                                 452.0234      80.0000     118.8219       0.0000       
 P171                            J69                             J80                                 786.2983      80.0000     137.6508       0.0000       
 P172                            J71                             J86                                 410.7433      80.0000     113.2484       0.0000       
 P173                            J72                             J74                                 558.5140      80.0000     139.2238       0.0000       
 P174                            J75                             J78                                 504.1951      80.0000     107.7365       0.0000       
 P175                            J81                             J84                                 491.7523      80.0000     123.4368       0.0000       
 P176                            J83                             J87                                 667.2969     200.0000     129.4638       0.0000       

[PUMPS]

[VALVES]

[DEMANDS]
 J1                                    0.123155                                
 J2                                    0.396788                                
 J3                                    0.812062                                
 J4                                    0.745952                                
 J5                                    0.487919                                
 J6                                    0.158138                                
 J7                                    0.337411                                
 J8                                    1.154415                                
 J9                                    1.045280                                
 J10                                   0.170085                                
 J11                                   0.754980                                
 J12                                   0.417393                                
 J13                                   1.033331                                
 J14                                   0.714022                                
 J15                                   0.415261                                
 J16                                   0.258500                                
 J17                                   0.964000                                
 J18                                   0.215531                                
 J19                                   1.076262                                
 J20                                   0.481241                                
 J21                                   0.653667                                
 J22                                   0.425693                                
 J23                                   1.105974                                
 J24                                   1.842480                                
 J25                                   0.394337                                
 J26                                   0.223748                                
 J27                                   0.266572                                
 J28                                   0.439335                                
 J29                                   0.533792                                
 J30                                   0.093143                                
 J31                                   0.136474                                
 J32                                   1.157171                                
 J33                                   0.414617                                
 J34                                   0.462368                                
 J35                                   0.274346                                
 J36                                   0.891210                                
 J37                                   0.918035                                
 J38                                   0.823591                                
 J39                                   0.407757                                
 J40                                   0.331929                                
 J41                                   0.951169                                
 J42                                   0.233733                                
 J43                                   0.446772                                
 J44                                   0.518164                                
 J45                                   0.064954                                
 J46                                   0.389968                                
 J47                                   0.317371                                
 J48                                   0.130716                                
 J49                                   0.788210                                
 J50                                   0.643319                                
 J51                                   0.541515                                
 J52                                   0.370842                                
 J53                                   0.670116                                
 J54                                   2.418399                                
 J55                                   0.633280                                
 J56                                   0.556252                                
 J57                                   0.923101                                
 J58                                   0.161046                                
 J59                                   0.347195                                
 J60                                   0.468203                                
 J61                                   1.218772                                
 J62                                   0.498945                                
 J63                                   1.467609                                
 J64                                   2.946094                                
 J65                                   0.228853                                
 J66                                   0.359699                                
 J67                                   0.374279                                
 J68                                   0.477610                                
 J69                                   0.729088                                
 J70                                   0.795126                                
 J71                                   1.522865                                
 J72                                   0.186231                                
 J73                                   0.446880                                
 J74                                   0.888307                                
 J75                                   0.680317                                
 J76                                   0.552907                                
 J77                                   0.836288                                
 J78                                   0.549620                                
 J79                                   0.905185                                
 J80                                   0.687782                                
 J81                                   0.295114                                
 J82                                   0.446955                                
 J83                                   0.742170                                
 J84                                   0.553313                                
 J85                                   0.488050                                
 J86                                   0.480728                                
 J87                                   1.519776                                

[EMITTERS]

[STATUS]

[PATTERNS]

[CURVES]

[CONTROLS]

[RULES]

[QUALITY]

[SOURCES]

[MIXING]

[REACTIONS]
 ORDER  BULK            1.00
 ORDER  WALL            1
 ORDER  TANK            1.00
 GLOBAL BULK            0.000000
 GLOBAL WALL            0.000000

[ENERGY]
 GLOBAL EFFIC        75.0000
 DEMAND CHARGE       0.0000

[TIMES]
 DURATION            0:00:00
 HYDRAULIC TIMESTEP  1:00:00
 QUALITY TIMESTEP    0:06:00
 REPORT TIMESTEP     1:00:00
 REPORT START        0:00:00
 PATTERN TIMESTEP    1:00:00
 PATTERN START       0:00:00
 RULE TIMESTEP       0:06:00
 START CLOCKTIME     0:00:00
 STATISTIC           NONE

[OPTIONS]
 UNITS               LPS
 PRESSURE            METERS
 HEADLOSS            H-W
 UNBALANCED          STOP
 QUALITY             NONE
 DEMAND MULTIPLIER   1.0000
 EMITTER EXPONENT    0.5000
 VISCOSITY           1.000000
 DIFFUSIVITY         1.000000
 SPECIFIC GRAVITY    1.000000
 TRIALS              500
 ACCURACY            0.00000001
 TOLERANCE           0.01000000
 CHECKFREQ           2
 MAXCHECK            10
 DAMPLIMIT           0.00000000

[REPORT]
 PAGESIZE            0
 STATUS              NO
 SUMMARY             YES
 ENERGY              NO
 MESSAGES            YES
 NODES               NONE
 LINKS               NONE
 Elevation           NO
 Demand              PRECISION 2
 Head                PRECISION 2
 Pressure            PRECISION 2
 Quality             PRECISION 2
 Length              NO
 Diameter            NO
 Flow                PRECISION 2
 Velocity            PRECISION 2
 Headloss            PRECISION 2
 Quality             NO
 State               NO
 Setting             NO
 Reaction            NO

[COORDINATES]
 J1                                 2098.895679     240.461096
 J2                                 2601.194966    4063.667117
 J3                                 2280.523838    1790.528429
 J4                                 2883.724555    1288.979060
 J5                                 3870.163688    4544.624203
 J6                                 4141.522793    1800.586825
 J7                                 4645.328137     538.780418
 J8                                 1944.892701    1246.869767
 J9                                 1751.549893      35.530460
 J10                                1079.038431    4653.462578
 J11                                1079.126893     202.830876
 J12                                 485.367494    1807.219784
 J13                                2712.248652    1825.095093
 J14                                 946.334315    3950.352062
 J15                                3737.584242     196.418137
 J16                                1175.026544    3571.802246
 J17                                 568.828330    3084.423709
 J18                                2851.169552    4671.382876
 J19                                3722.529678    2171.398651
 J20                                  45.809611    2512.297466
 J21                                4435.658803    3488.906593
 J22                                2277.742581     548.039226
 J23                                3464.737627    3674.334546
 J24                                3182.854037    4489.329777
 J25                                1042.320867    2067.522009
 J26                                4290.519627     539.216047
 J27                                1978.896166    2232.397082
 J28                                4593.102581       8.862456
 J29                                1925.496399    3083.746530
 J30                                3645.289396     862.204335
 J31                                1629.878247    2478.597227
 J32                                2994.316873    2357.623859
 J33                                4266.307132    4444.647512
 J34                                 476.192730    4372.661551
 J35                                1432.623164    2831.857536
 J36                                2509.173055    3260.976609
 J37                                3484.758228    2674.890045
 J38                                2441.679427    2390.080886
 J39                                 354.757748    3718.341582
 J40                                3703.707424    4073.183462
 J41                                2001.632901    4655.760735
 J42                                4122.773545    2820.478508
 J43                                2214.593665    3658.294095
 J44                                1079.656324     996.071475
 J45                                2109.587794    4081.200866
 J46                                3488.836467    3122.355231
 J47                                 611.859245     700.193967
 J48                                3894.301744     604.046643
 J49                                 702.361698    1352.432740
 J50                                4565.563249    1494.017625
 J51                                1436.039394     980.336261
 J52                                1036.389702    1595.737495
 J53                                4458.799282    2601.154274
 J54                                3279.505678    1616.684297
 J55                                2745.867354      27.601142
 J56                                4609.320296    1139.755635
 J57                                  43.203515    2131.046346
 J58                                3313.982403    1011.836490
 J59                                1219.792051    2458.328875
 J60                                2739.458783     459.441398
 J61                                2812.683154    3544.054267
 J62                                1421.855948    4253.124045
 J63                                1744.117788    1694.025058
 J64                                 339.261179     411.243088
 J65                                3996.629288    3333.349965
 J66                                4519.577215    3121.639818
 J67                                3898.660209    3679.772341
 J68                                1430.455928     592.644317
 J69                                  58.499230     854.328588
 J70                                3131.468457    3931.233359
 J71                                4512.626367    4016.758404
 J72                                 137.049831    4003.303277
 J73                                4659.603793    1965.902042
 J74                                  28.702141    3549.960715
 J75                                4068.568252    1171.509420
 J76                                1649.442843    3824.614652
 J77                                 476.865452    2294.556153
 J78                                3681.295534    1381.406134
 J79                                1779.046669     426.296431
 J80                                 116.161829    1551.282452
 J81                                2507.807726    2857.017741
 J82                                2290.004886    1146.088071
 J83                                3292.146339      17.708516
 J84                                2908.725476    2747.764426
 J85                                 498.587686      50.353052
 J86                                4710.195911    4323.546821
 J87                                3348.037556     582.738124
 R1                                 4559.320296    1089.755635
 R2                                 3242.146339     -32.291484

[VERTICES]

[END]
