[TITLE]

[JUNCTIONS]
 J1                                   13.5045
 J2                                    6.4827
 J3                                    6.7098
 J4                                   36.7195
 J5                                    0.0000
 J6                                   26.2785
 J7                                   26.7374
 J8                                   18.1781
 J9                                   25.2078
 J10                                   7.1138
 J11                                  39.0349
 J12                                   1.3173
 J13                                  19.3215
 J14                                  23.6875
 J15                                  45.5084
 J16                                  22.2166
 J17                                  11.5224
 J18                                  21.8971
 J19                                  23.5120
 J20                                  22.3971
 J21                                   3.3644
 J22                                   7.8602
 J23                                   5.2037
 J24                                  15.1739
 J25                                   1.1413
 J26                                  29.5250
 J27                                  39.8121
 J28                                  31.3851
 J29                                  43.1486
 J30                                   9.2503
 J31                                  42.9639
 J32                                  43.3406
 J33                                   9.1852
 J34                                  23.7373
 J35                                  23.9480
 J36                                  21.6807
 J37                                  39.2543
 J38                                  20.4495
 J39                                  15.0452
 J40                                  24.8135
 J41                                  18.5492
 J42                                  18.2270
 J43                                  17.1333
 J44                                  15.2454
 J45                                  42.5533
 J46                                  19.1910

[RESERVOIRS]
 R1                                  127.3143                                

[TANKS]

[PIPES]
 PS1                             R1                              J15                                  50.0000     800.0000     140.0000       0.0000       
 P1                              J1                              J20                                 593.1978      80.0000     138.1396       0.0000       
 P2                              J1                              J34                                 933.7732      80.0000     123.9798       0.0000       
 P3                              J1                              J40                                 420.0089      80.0000     124.2355       0.0000       
 P4                              J2                              J12                                 768.2229      80.0000     130.0430       0.0000       
 P5                              J2                              J19                                 528.5920      80.0000     133.5689       0.0000       
 P6                              J2                              J25                                 414.0921      80.0000     103.8588       0.0000       
 P7                              J2                              J34                                 826.4154      80.0000     102.0238       0.0000       
 P8                              J3                              J9                                  477.2462      80.0000     112.4847       0.0000       
 P9                              J3                              J18                                 542.1196      80.0000     125.7971       0.0000       
 P10                             J3                              J19                                 445.4601      80.0000     125.0254       0.0000       
 P11                             J3                              J24                                 695.0606      80.0000     108.9859       0.0000       
 P12                             J3                              J25                                 458.0826      80.0000     139.9683       0.0000       
 P13                             J4                              J35                                 471.4221      80.0000     134.6747       0.0000       
 P14                             J4                              J43                                 613.4100      80.0000     133.0431       0.0000       
 P15                             J5                              J21                                 452.0577      80.0000     139.8103       0.0000       
 P16                             J5                              J23                                 450.5854      80.0000     123.4169       0.0000       
 P17                             J6                              J14                                 503.3455      80.0000     137.9571       0.0000       
 P18                             J6                              J21                                 951.4882      80.0000     115.0325       0.0000       
 P19                             J6                              J28                                 581.6167      80.0000     133.2337       0.0000       
 P20                             J6                              J41                                 370.0817      80.0000     103.8388       0.0000       
 P21                             J7                              J26                                 465.8131      80.0000     138.9394       0.0000       
 P22                             J7                              J38                                 440.7884      80.0000     101.6832       0.0000       
 P23                             J8                              J13                                 386.2488      80.0000     119.3321       0.0000       
 P24                             J8                              J14                                 556.3436      80.0000     136.8110       0.0000       
 P25                             J8                              J17                                 737.6440      80.0000     118.5589       0.0000       
 P26                             J9                              J19                                 555.0476      80.0000     111.5013       0.0000       
 P27                             J9                              J20                                 665.9137      80.0000     121.5589       0.0000       
 P28                             J9                              J36                                 493.4166      80.0000     136.2601       0.0000       
 P29                             J9                              J39                                 575.3783      80.0000     100.9198       0.0000       
 P30                             J10                             J16                                 780.0243      80.0000     117.7615       0.0000       
 P31                             J10                             J22                                 458.4784      80.0000     129.5324       0.0000       
 P32                             J10                             J37                                 487.1677      80.0000     120.6154       0.0000       
 P33                             J11                             J29                                 523.9731     125.0000     127.3271       0.0000       
 P34                             J11                             J37                                 448.5642     125.0000     139.3153       0.0000       
 P35                             J11                             J42                                 535.1110      80.0000     123.6789       0.0000       
 P36                             J12                             J30                                 496.2373      80.0000     135.2992       0.0000       
 P37                             J12                             J41                                 596.7629      80.0000     136.2957       0.0000       
 P38                             J13                             J14                                 549.5661      80.0000     138.4596       0.0000       
 P39                             J13                             J44                                 435.7284      80.0000     138.6588       0.0000       
 P40                             J14                             J28                                 395.1058      80.0000     121.8796       0.0000       
 P41                             J15                             J24                                 526.7715     125.0000     116.6914       0.0000       
 P42                             J15                             J32                                 355.3188      80.0000     121.6452       0.0000       
 P43                             J15                             J37                                 417.5610     150.0000     110.7932       0.0000       
 P44                             J15                             J43                                 735.4829      80.0000     129.3403       0.0000       
 P45                             J16                             J45                                 498.4447      80.0000     132.6430       0.0000       
 P46                             J17                             J26                                 694.5523      80.0000     133.8068       0.0000       
 P47                             J17                             J28                                 482.8062      80.0000     100.5276       0.0000       
 P48                             J17                             J42                                 516.1577      80.0000     128.7030       0.0000       
 P49                             J18                             J24                                 389.5873      80.0000     112.8815       0.0000       
 P50                             J18                             J25                                 692.8971      80.0000     118.3471       0.0000       
 P51                             J18                             J29                                 493.6649      80.0000     102.2156       0.0000       
 P52                             J19                             J20                                 447.4012      80.0000     131.6828       0.0000       
 P53                             J19                             J34                                 776.6623      80.0000     127.5098       0.0000       
 P54                             J20                             J34                                 775.9090      80.0000     115.8283       0.0000       
 P55                             J20                             J36                                 652.5554      80.0000     103.4586       0.0000       
 P56                             J20                             J46                                 754.2924      80.0000     135.6163       0.0000       
 P57                             J21                             J23                                 528.9960      80.0000     129.1077       0.0000       
 P58                             J21                             J33                                 427.0509      80.0000     125.4389       0.0000       
 P59                             J22                             J26                                 811.0444      80.0000     129.9823       0.0000       
 P60                             J22                             J42                                 689.9554      80.0000     128.6730       0.0000       
 P61                             J23                             J44                                 419.2235      80.0000     111.8926       0.0000       
 P62                             J24                             J39                                 372.8824      80.0000     117.0759       0.0000       
 P63                             J25                             J41                                 582.1709      80.0000     127.6868       0.0000       
 P64                             J26                             J31                                 779.4466      80.0000     107.7265       0.0000       
 P65                             J27                             J35                                 464.3690      80.0000     133.3872       0.0000       
 P66                             J27                             J45                                 518.7094      80.0000     121.4325       0.0000       
 P67                             J28                             J29                                 629.4610     100.0000     107.2377       0.0000       
 P68                             J28                             J41                                 625.6520      80.0000     139.4145       0.0000       
 P69                             J28                             J42                                 634.5322      80.0000     135.6764       0.0000       
 P70                             J29                             J41                                 779.4554      80.0000     122.0387       0.0000       
 P71                             J29                             J42                                 577.2086      80.0000     115.7589       0.0000       
 P72                             J30                             J33                                 688.1505      80.0000     104.5380       0.0000       
 P73                             J30                             J34                                1001.9107      80.0000     123.5478       0.0000       
 P74                             J32                             J45                                 418.1457      80.0000     138.3429       0.0000       
 P75                             J35                             J43                                 730.1648      80.0000     107.9819       0.0000       
 P76                             J36                             J46                                 634.7855      80.0000     100.9433       0.0000       
 P77                             J39                             J43                                 384.8685      80.0000     136.9583       0.0000       
 P78                             J40                             J46                                 485.0192      80.0000     102.1044       0.0000       

[PUMPS]

[VALVES]

[DEMANDS]
 J1                                    0.088250                                
 J2                                    1.412807                                
 J3                                    0.590590                                
 J4                                    0.461384                                
 J5                                    0.431578                                
 J6                                    0.923846                                
 J7                                    0.199148                                
 J8                                    0.404618                                
 J9                                    0.865318                                
 J10                                   0.379417                                
 J11                                   0.143417                                
 J12                                   0.188722                                
 J13                                   1.764642                                
 J14                                   0.423777                                
 J15                                   0.245197                                
 J16                                   0.612185                                
 J17                                   0.267145                                
 J18                                   0.757256                                
 J19                                   0.646918                                
 J20                                   0.337314                                
 J21                                   0.258400                                
 J22                                   0.548413                                
 J23                                   0.064821                                
 J24                                   0.152100                                
 J25                                   1.563606                                
 J26                                   0.290543                                
 J27                                   0.978873                                
 J28                                   0.303348                                
 J29                                   0.395147                                
 J30                                   0.306536                                
 J31                                   0.479351                                
 J32                                   1.933883                                
 J33                                   0.437098                                
 J34                                   0.389082                                
 J35                                   0.606228                                
 J36                                   0.110008                                
 J37                                   0.541243                                
 J38                                   0.704452                                
 J39                                   0.294016                                
 J40                                   0.586759                                
 J41                                   0.439161                                
 J42                                   0.183174                                
 J43                                   0.378219                                
 J44                                   2.105409                                
 J45                                   0.122838                                
 J46                                   0.312698                                

[EMITTERS]

[STATUS]

[PATTERNS]

[CURVES]

[CONTROLS]

[RULES]

[QUALITY]

[SOURCES]

[MIXING]

[REACTIONS]
 ORDER  BULK            1.00
 ORDER  WALL            1
 ORDER  TANK            1.00
 GLOBAL BULK            0.000000
 GLOBAL WALL            0.000000

[ENERGY]
 GLOBAL EFFIC        75.0000
 DEMAND CHARGE       0.0000

[TIMES]
 DURATION            0:00:00
 HYDRAULIC TIMESTEP  1:00:00
 QUALITY TIMESTEP    0:06:00
 REPORT TIMESTEP     1:00:00
 REPORT START        0:00:00
 PATTERN TIMESTEP    1:00:00
 PATTERN START       0:00:00
 RULE TIMESTEP       0:06:00
 START CLOCKTIME     0:00:00
 STATISTIC           NONE

[OPTIONS]
 UNITS               LPS
 PRESSURE            METERS
 HEADLOSS            H-W
 UNBALANCED          STOP
 QUALITY             NONE
 DEMAND MULTIPLIER   1.0000
 EMITTER EXPONENT    0.5000
 VISCOSITY           1.000000
 DIFFUSIVITY         1.000000
 SPECIFIC GRAVITY    1.000000
 TRIALS              500
 ACCURACY            0.00000001
 TOLERANCE           0.01000000
 CHECKFREQ           2
 MAXCHECK            10
 DAMPLIMIT           0.00000000

[REPORT]
 PAGESIZE            0
 STATUS              NO
 SUMMARY             YES
 ENERGY              NO
 MESSAGES            YES
 NODES               NONE
 LINKS               NONE
 Elevation           NO
 Demand              PRECISION 2
 Head                PRECISION 2
 Pressure            PRECISION 2
 Quality             PRECISION 2
 Length              NO
 Diameter            NO
 Flow                PRECISION 2
 Velocity            PRECISION 2
 Headloss            PRECISION 2
 Quality             NO
 State               NO
 Setting             NO
 Reaction            NO

[COORDINATES]
 J1                                 3118.396929    2711.640351
 J2                                 2490.006981    1691.589548
 J3                                 2046.877197    2118.436305
 J4                                 1266.277936    3243.403402
 J5                                 2994.203945     102.677718
 J6                                 2037.185728     878.245839
 J7                                  426.136632     321.590007
 J8                                 1561.793658     217.549727
 J9                                 2096.471368    2516.058592
 J10                                 396.356216    1788.673911
 J11                                1041.832968    1660.850691
 J12                                2600.077554    1059.055238
 J13                                1898.671693     210.313405
 J14                                1695.292946     652.977524
 J15                                1059.797445    2169.681767
 J16                                 115.354039    2402.323175
 J17                                1167.865979     762.623831
 J18                                1596.588216    1928.059971
 J19                                2425.392701    2187.901283
 J20                                2654.198264    2538.851025
 J21                                2769.912026     452.840179
 J22                                 509.340776    1380.567143
 J23                                2595.047086      45.127724
 J24                                1482.691431    2274.197034
 J25                                2115.868193    1726.516325
 J26                                 623.876467     645.562139
 J27                                 571.625016    2825.500868
 J28                                1570.076448     979.728038
 J29                                1487.420851    1527.098372
 J30                                2999.185957    1049.698087
 J31                                  23.326502     883.640207
 J32                                 868.827153    2448.777190
 J33                                3157.522308     512.957576
 J34                                3109.998578    1960.729099
 J35                                 844.684132    3144.403403
 J36                                2273.026756    2910.073552
 J37                                 802.331256    1942.976461
 J38                                 105.752562      58.630534
 J39                                1616.769219    2585.169059
 J40                                3167.280956    3074.730487
 J41                                2061.282132    1225.154980
 J42                                1082.591522    1233.539394
 J43                                1314.867304    2732.827773
 J44                                2255.573802      52.401535
 J45                                 514.531463    2371.684037
 J46                                2779.013392    3199.859914
 R1                                 1009.797445    2119.681767

[VERTICES]

[END]
