[TITLE]

[JUNCTIONS]
 J1                                   11.1606
 J2                                   14.6483
 J3                                    6.6988
 J4                                    5.8646
 J5                                   39.9683
 J6                                    6.3244
 J7                                   23.8180
 J8                                   12.6611
 J9                                   18.2326
 J10                                  31.8475
 J11                                  15.7666
 J12                                   8.5470
 J13                                  34.9470
 J14                                  26.2219
 J15                                  11.7499
 J16                                  33.9519
 J17                                  26.1853
 J18                                   7.3356
 J19                                   8.4857
 J20                                  32.9167
 J21                                   7.1957
 J22                                  33.8903
 J23                                  18.7172
 J24                                  20.8117
 J25                                  31.1888
 J26                                  21.5181
 J27                                  33.9801
 J28                                  21.3437
 J29                                  40.5072
 J30                                  36.1355
 J31                                  13.7718
 J32                                  24.3624
 J33                                   7.0510
 J34                                  28.7699
 J35                                  11.4895
 J36                                  29.7003
 J37                                  14.4766
 J38                                  23.7274
 J39                                  14.8352
 J40                                  19.6308
 J41                                  36.8322
 J42                                  22.4599
 J43                                  39.7519
 J44                                  21.7489
 J45                                  15.1000
 J46                                  35.3992
 J47                                  30.2429
 J48                                  20.9042
 J49                                  19.9369
 J50                                   5.9033
 J51                                  32.4178
 J52                                  23.6836
 J53                                   5.4885
 J54                                   3.6590
 J55                                   9.6554
 J56                                  28.9608
 J57                                  20.0959
 J58                                  21.1268
 J59                                   9.9651
 J60                                   4.0396
 J61                                  18.2530
 J62                                  37.4333
 J63                                   0.8054
 J64                                  34.4961
 J65                                  33.1301
 J66                                  22.8536
 J67                                  32.4139
 J68                                   7.9859
 J69                                   1.5270
 J70                                   3.1163
 J71                                  28.3542
 J72                                  23.6370
 J73                                  27.4923
 J74                                   0.0000
 J75                                  11.6653
 J76                                  37.0788
 J77                                  23.5552
 J78                                  27.6750
 J79                                  37.7400

[RESERVOIRS]
 R1                                  110.5306                                
 R2                                  113.2978                                

[TANKS]

[PIPES]
 PS1                             R1                              J79                                  50.0000     800.0000     140.0000       0.0000       
 PS2                             R2                              J29                                  50.0000     800.0000     140.0000       0.0000       
 P1                              J1                              J15                                 336.6622      80.0000     131.3698       0.0000       
 P2                              J1                              J38                                 411.9799      80.0000     102.0902       0.0000       
 P3                              J2                              J18                                 445.0958      80.0000     128.7796       0.0000       
 P4                              J2                              J58                                 540.4789      80.0000     129.7566       0.0000       
 P5                              J2                              J61                                 373.2953      80.0000     118.5042       0.0000       
 P6                              J3                              J6                                  377.1145      80.0000     110.6481       0.0000       
 P7                              J3                              J7                                  603.4525      80.0000     109.2629       0.0000       
 P8                              J3                              J59                                 429.1396      80.0000     119.2399       0.0000       
 P9                              J3                              J60                                 441.0273      80.0000     105.0409       0.0000       
 P10                             J4                              J53                                 423.8497      80.0000     131.0697       0.0000       
 P11                             J4                              J69                                 373.2918      80.0000     121.6657       0.0000       
 P12                             J5                              J29                                 445.0095      80.0000     110.9540       0.0000       
 P13                             J5                              J30                                 396.2607      80.0000     114.8140       0.0000       
 P14                             J5                              J41                                 610.8709      80.0000     130.5427       0.0000       
 P15                             J6                              J53                                 371.1086      80.0000     109.9165       0.0000       
 P16                             J7                              J17                                 339.5070      80.0000     129.4655       0.0000       
 P17                             J7                              J58                                 449.8808      80.0000     100.8562       0.0000       
 P18                             J8                              J31                                 383.8758      80.0000     129.6721       0.0000       
 P19                             J8                              J39                                 401.0010      80.0000     119.1484       0.0000       
 P20                             J8                              J42                                 635.0314      80.0000     112.5255       0.0000       
 P21                             J8                              J49                                 551.9594      80.0000     101.5062       0.0000       
 P22                             J8                              J52                                 391.3574      80.0000     101.4416       0.0000       
 P23                             J9                              J18                                 365.9866      80.0000     103.3311       0.0000       
 P24                             J9                              J32                                 401.7366      80.0000     114.1341       0.0000       
 P25                             J9                              J36                                 455.4978      80.0000     129.3417       0.0000       
 P26                             J9                              J64                                 510.3992      80.0000     105.8724       0.0000       
 P27                             J9                              J75                                 466.7247      80.0000     117.8138       0.0000       
 P28                             J10                             J25                                 348.1447      80.0000     116.7429       0.0000       
 P29                             J10                             J32                                 586.4227      80.0000     108.0627       0.0000       
 P30                             J10                             J49                                 401.4595      80.0000     137.2799       0.0000       
 P31                             J10                             J51                                 558.7772      80.0000     120.4260       0.0000       
 P32                             J10                             J56                                 335.3664      80.0000     114.6831       0.0000       
 P33                             J11                             J17                                 339.4030      80.0000     120.4260       0.0000       
 P34                             J11                             J20                                 520.8064      80.0000     126.5031       0.0000       
 P35                             J11                             J60                                 355.7442      80.0000     135.3970       0.0000       
 P36                             J12                             J13                                 503.1037      80.0000     114.9891       0.0000       
 P37                             J12                             J71                                 375.5880      80.0000     107.8420       0.0000       
 P38                             J12                             J74                                 370.2937      80.0000     139.0464       0.0000       
 P39                             J13                             J22                                 341.9538      80.0000     110.0328       0.0000       
 P40                             J13                             J71                                 381.4453      80.0000     104.3269       0.0000       
 P41                             J14                             J23                                 433.4514     125.0000     122.9695       0.0000       
 P42                             J14                             J29                                 361.4504     150.0000     103.1917       0.0000       
 P43                             J14                             J30                                 425.7920      80.0000     103.6752       0.0000       
 P44                             J14                             J37                                 462.2902      80.0000     134.0721       0.0000       
 P45                             J15                             J68                                 520.3466      80.0000     124.4019       0.0000       
 P46                             J16                             J22                                 693.8536      80.0000     134.9959       0.0000       
 P47                             J16                             J36                                 453.5060      80.0000     130.6738       0.0000       
 P48                             J16                             J55                                 649.5286      80.0000     131.2117       0.0000       
 P49                             J16                             J64                                 370.8961      80.0000     102.7714       0.0000       
 P50                             J17                             J52                                 443.2289      80.0000     121.4287       0.0000       
 P51                             J17                             J67                                 412.7931      80.0000     117.8425       0.0000       
 P52                             J18                             J75                                 456.5167      80.0000     116.4689       0.0000       
 P53                             J19                             J46                                 709.8053      80.0000     106.8614       0.0000       
 P54                             J19                             J48                                 481.0423      80.0000     132.8957       0.0000       
 P55                             J19                             J63                                 375.3730      80.0000     104.8677       0.0000       
 P56                             J19                             J70                                 568.6422      80.0000     114.9763       0.0000       
 P57                             J20                             J67                                 328.5472      80.0000     116.5332       0.0000       
 P58                             J20                             J76                                 413.6172      80.0000     124.8375       0.0000       
 P59                             J21                             J22                                 503.4568      80.0000     132.6167       0.0000       
 P60                             J21                             J55                                 548.8032      80.0000     110.7238       0.0000       
 P61                             J22                             J46                                 412.9881      80.0000     114.3404       0.0000       
 P62                             J23                             J37                                 490.4519      80.0000     106.7105       0.0000       
 P63                             J23                             J66                                 417.1239      80.0000     122.7267       0.0000       
 P64                             J23                             J78                                 389.0507     125.0000     127.0951       0.0000       
 P65                             J24                             J39                                 411.2684      80.0000     101.9325       0.0000       
 P66                             J24                             J67                                 574.2197      80.0000     126.6012       0.0000       
 P67                             J24                             J68                                 450.4074      80.0000     107.6683       0.0000       
 P68                             J24                             J76                                 425.2925      80.0000     101.7092       0.0000       
 P69                             J25                             J34                                 606.2822      80.0000     110.9488       0.0000       
 P70                             J25                             J62                                 644.8872      80.0000     102.5678       0.0000       
 P71                             J25                             J66                                 433.3077      80.0000     112.3463       0.0000       
 P72                             J25                             J78                                 333.0582     100.0000     133.3443       0.0000       
 P73                             J26                             J40                                 709.5940      80.0000     139.7629       0.0000       
 P74                             J26                             J45                                 456.7589      80.0000     111.9448       0.0000       
 P75                             J26                             J57                                 367.1808      80.0000     101.5397       0.0000       
 P76                             J27                             J42                                 302.9902      80.0000     100.7593       0.0000       
 P77                             J27                             J43                                 592.6673      80.0000     101.1677       0.0000       
 P78                             J27                             J62                                 385.2576      80.0000     129.0038       0.0000       
 P79                             J27                             J79                                 583.0859      80.0000     132.6428       0.0000       
 P80                             J28                             J40                                 370.2992      80.0000     127.0878       0.0000       
 P81                             J28                             J44                                 344.8711      80.0000     112.9242       0.0000       
 P82                             J28                             J70                                 600.5522      80.0000     107.8676       0.0000       
 P83                             J29                             J30                                 450.6308      80.0000     119.4454       0.0000       
 P84                             J30                             J73                                 363.6324      80.0000     113.3449       0.0000       
 P85                             J31                             J52                                 483.4441      80.0000     122.3008       0.0000       
 P86                             J31                             J61                                 430.0777      80.0000     119.2306       0.0000       
 P87                             J31                             J75                                 493.5256      80.0000     106.8331       0.0000       
 P88                             J32                             J49                                 409.7342      80.0000     126.1144       0.0000       
 P89                             J32                             J75                                 423.9295      80.0000     102.5970       0.0000       
 P90                             J33                             J40                                 308.3815      80.0000     123.2586       0.0000       
 P91                             J33                             J50                                 392.4636      80.0000     110.2581       0.0000       
 P92                             J33                             J74                                 375.2025      80.0000     101.3889       0.0000       
 P93                             J34                             J47                                 425.0810      80.0000     103.3279       0.0000       
 P94                             J34                             J72                                 422.9263      80.0000     109.8010       0.0000       
 P95                             J34                             J77                                 394.4330      80.0000     123.5842       0.0000       
 P96                             J35                             J44                                 428.7348      80.0000     137.7602       0.0000       
 P97                             J35                             J54                                 786.6980      80.0000     124.1927       0.0000       
 P98                             J35                             J57                                 299.4121      80.0000     138.4296       0.0000       
 P99                             J36                             J64                                 310.4341      80.0000     129.8733       0.0000       
 P100                            J36                             J71                                 370.6925      80.0000     117.5672       0.0000       
 P101                            J37                             J55                                 335.5773      80.0000     106.3230       0.0000       
 P102                            J37                             J65                                 508.7683      80.0000     113.0665       0.0000       
 P103                            J38                             J43                                 386.0336      80.0000     107.7659       0.0000       
 P104                            J38                             J68                                 459.1795      80.0000     131.7793       0.0000       
 P105                            J39                             J52                                 467.8707      80.0000     111.8990       0.0000       
 P106                            J39                             J67                                 483.7638      80.0000     131.8782       0.0000       
 P107                            J40                             J44                                 303.8495      80.0000     123.7570       0.0000       
 P108                            J40                             J57                                 580.3749      80.0000     113.5702       0.0000       
 P109                            J41                             J72                                 702.7492      80.0000     108.4738       0.0000       
 P110                            J41                             J73                                 460.5959      80.0000     128.0815       0.0000       
 P111                            J42                             J56                                 399.0290      80.0000     124.8952       0.0000       
 P112                            J42                             J62                                 474.2791      80.0000     124.0376       0.0000       
 P113                            J43                             J79                                 624.7020      80.0000     131.3428       0.0000       
 P114                            J44                             J57                                 463.6965      80.0000     136.7973       0.0000       
 P115                            J45                             J54                                 467.3833      80.0000     119.6837       0.0000       
 P116                            J45                             J57                                 400.7701      80.0000     109.8214       0.0000       
 P117                            J45                             J59                                 505.3013      80.0000     112.9836       0.0000       
 P118                            J46                             J48                                 615.4316      80.0000     118.3786       0.0000       
 P119                            J47                             J62                                 632.5205      80.0000     118.0097       0.0000       
 P120                            J47                             J72                                 514.9815      80.0000     126.0002       0.0000       
 P121                            J47                             J79                                 310.5856      80.0000     108.4512       0.0000       
 P122                            J49                             J75                                 515.3891      80.0000     139.1389       0.0000       
 P123                            J51                             J64                                 411.0657      80.0000     122.8292       0.0000       
 P124                            J51                             J78                                 337.1842      80.0000     136.2319       0.0000       
 P125                            J52                             J67                                 452.1903      80.0000     122.3990       0.0000       
 P126                            J53                             J54                                 511.8004      80.0000     126.6440       0.0000       
 P127                            J53                             J59                                 478.8336      80.0000     125.0087       0.0000       
 P128                            J54                             J59                                 493.5464      80.0000     138.0909       0.0000       
 P129                            J54                             J69                                 433.9768      80.0000     126.1850       0.0000       
 P130                            J55                             J65                                 479.7962      80.0000     116.1667       0.0000       
 P131                            J56                             J62                                 392.7738      80.0000     120.5459       0.0000       
 P132                            J58                             J61                                 469.7510      80.0000     108.9850       0.0000       
 P133                            J61                             J75                                 555.3867      80.0000     135.1151       0.0000       
 P134                            J62                             J79                                 607.9965      80.0000     120.0523       0.0000       
 P135                            J63                             J70                                 587.2650      80.0000     122.9387       0.0000       
 P136                            J66                             J73                                 441.0889      80.0000     131.5849       0.0000       
 P137                            J66                             J77                                 340.7857      80.0000     138.7570       0.0000       
 P138                            J66                             J78                                 532.8134      80.0000     105.7789       0.0000       
 P139                            J70                             J74                                 329.6191      80.0000     124.2287       0.0000       
 P140                            J72                             J77                                 375.8813      80.0000     130.3383       0.0000       
 P141                            J73                             J77                                 344.4119      80.0000     125.1849       0.0000       

[PUMPS]

[VALVES]

[DEMANDS]
 J1                                    0.209462                                
 J2                                    0.302090                                
 J3                                    0.264389                                
 J4                                    0.117225                                
 J5                                    0.450245                                
 J6                                    0.084868                                
 J7                                    0.078896                                
 J8                                    0.151523                                
 J9                                    0.066021                                
 J10                                   0.500343                                
 J11                                   0.091993                                
 J12                                   0.952530                                
 J13                                   0.013498                                
 J14                                   0.150758                                
 J15                                   0.155578                                
 J16                                   0.554596                                
 J17                                   0.030715                                
 J18                                   0.235138                                
 J19                                   0.306330                                
 J20                                   1.030209                                
 J21                                   0.081761                                
 J22                                   0.330665                                
 J23                                   0.113704                                
 J24                                   0.177874                                
 J25                                   0.230120                                
 J26                                   0.473953                                
 J27                                   0.098494                                
 J28                                   0.078012                                
 J29                                   0.111875                                
 J30                                   0.153012                                
 J31                                   0.716712                                
 J32                                   0.030287                                
 J33                                   0.097020                                
 J34                                   0.151268                                
 J35                                   0.388869                                
 J36                                   0.017163                                
 J37                                   0.623289                                
 J38                                   0.132439                                
 J39                                   0.080183                                
 J40                                   0.710956                                
 J41                                   0.643125                                
 J42                                   0.035733                                
 J43                                   0.053323                                
 J44                                   0.101912                                
 J45                                   0.180518                                
 J46                                   0.387908                                
 J47                                   0.767649                                
 J48                                   0.187876                                
 J49                                   0.205973                                
 J50                                   0.217360                                
 J51                                   0.331867                                
 J52                                   0.393610                                
 J53                                   0.099421                                
 J54                                   0.207439                                
 J55                                   0.051359                                
 J56                                   0.270252                                
 J57                                   0.190539                                
 J58                                   0.075909                                
 J59                                   0.882011                                
 J60                                   0.140494                                
 J61                                   0.388715                                
 J62                                   0.230459                                
 J63                                   0.232831                                
 J64                                   0.428902                                
 J65                                   0.393110                                
 J66                                   0.043279                                
 J67                                   0.102190                                
 J68                                   0.127177                                
 J69                                   0.493850                                
 J70                                   0.064206                                
 J71                                   0.178064                                
 J72                                   0.303365                                
 J73                                   0.231931                                
 J74                                   0.191720                                
 J75                                   0.185176                                
 J76                                   0.557006                                
 J77                                   0.491748                                
 J78                                   0.444034                                
 J79                                   0.211459                                

[EMITTERS]

[STATUS]

[PATTERNS]

[CURVES]

[CONTROLS]

[RULES]

[QUALITY]

[SOURCES]

[MIXING]

[REACTIONS]
 ORDER  BULK            1.00
 ORDER  WALL            1
 ORDER  TANK            1.00
 GLOBAL BULK            0.000000
 GLOBAL WALL            0.000000

[ENERGY]
 GLOBAL EFFIC        75.0000
 DEMAND CHARGE       0.0000

[TIMES]
 DURATION            0:00:00
 HYDRAULIC TIMESTEP  1:00:00
 QUALITY TIMESTEP    0:06:00
 REPORT TIMESTEP     1:00:00
 REPORT START        0:00:00
 PATTERN TIMESTEP    1:00:00
 PATTERN START       0:00:00
 RULE TIMESTEP       0:06:00
 START CLOCKTIME     0:00:00
 STATISTIC           NONE

[OPTIONS]
 UNITS               LPS
 PRESSURE            METERS
 HEADLOSS            H-W
 UNBALANCED          STOP
 QUALITY             NONE
 DEMAND MULTIPLIER   1.0000
 EMITTER EXPONENT    0.5000
 VISCOSITY           1.000000
 DIFFUSIVITY         1.000000
 SPECIFIC GRAVITY    1.000000
 TRIALS              500
 ACCURACY            0.00000001
 TOLERANCE           0.01000000
 CHECKFREQ           2
 MAXCHECK            10
 DAMPLIMIT           0.00000000

[REPORT]
 PAGESIZE            0
 STATUS              NO
 SUMMARY             YES
 ENERGY              NO
 MESSAGES            YES
 NODES               NONE
 LINKS               NONE
 Elevation           NO
 Demand              PRECISION 2
 Head                PRECISION 2
 Pressure            PRECISION 2
 Quality             PRECISION 2
 Length              NO
 Diameter            NO
 Flow                PRECISION 2
 Velocity            PRECISION 2
 Headloss            PRECISION 2
 Quality             NO
 State               NO
 Setting             NO
 Reaction            NO

[COORDINATES]
 J1                                   85.516584    3068.268390
 J2                                 2267.925369    2087.436636
 J3                                 2341.971329    3077.211565
 J4                                 3167.257601    3306.712145
 J5                                  408.749905     128.135298
 J6                                 2562.728188    3359.116574
 J7                                 1991.612527    2712.021604
 J8                                 1345.625358    2327.483487
 J9                                 1975.495104    1473.879262
 J10                                1146.901806    1558.561197
 J11                                1761.134144    3205.457187
 J12                                2697.025985    1006.228780
 J13                                2510.865886     608.012317
 J14                                 865.214372     495.780287
 J15                                 272.233517    3286.837092
 J16                                1942.392505     778.513106
 J17                                1757.768169    2914.325712
 J18                                2192.206732    1674.510869
 J19                                3123.119550     555.751942
 J20                                1325.919047    3235.715194
 J21                                1953.540450     133.734481
 J22                                2380.118011     349.879048
 J23                                1053.038395     835.629993
 J24                                 932.659423    2906.887244
 J25                                 961.367369    1327.118121
 J26                                2738.478089    2166.820057
 J27                                 531.267609    2075.000455
 J28                                3410.091557    1559.753434
 J29                                 776.199903     172.539279
 J30                                 520.252588     432.222543
 J31                                1640.736879    2216.992418
 J32                                1645.999615    1545.501371
 J33                                2930.232225    1484.084668
 J34                                 427.580706    1377.029979
 J35                                3334.532813    2276.398261
 J36                                2093.531862    1114.555318
 J37                                1269.255562     456.902676
 J38                                 117.256614    2721.207124
 J39                                1147.807839    2582.584170
 J40                                3104.879898    1717.203651
 J41                                 112.859934     561.085605
 J42                                 799.668990    2119.737549
 J43                                  78.979309    2393.969935
 J44                                3345.563333    1868.355839
 J45                                2887.721827    2511.119137
 J46                                2680.889844     153.231534
 J47                                 123.478761    1595.790229
 J48                                3245.438131     119.487525
 J49                                1390.175694    1808.953591
 J50                                2651.928082    1630.124941
 J51                                1445.874022    1198.185095
 J52                                1523.572631    2591.244019
 J53                                2811.976089    3194.423952
 J54                                3071.624244    2858.337579
 J55                                1534.698370     318.643100
 J56                                 968.016570    1820.451106
 J57                                3075.381971    2195.513654
 J58                                2317.238255    2545.083344
 J59                                2604.784443    2845.013364
 J60                                2031.685699    3297.841375
 J61                                1983.193307    2286.782261
 J62                                 610.411701    1743.971059
 J63                                3436.374828     571.136052
 J64                                1801.503010    1087.949462
 J65                                1245.001123      17.499685
 J66                                 737.385234    1032.551978
 J67                                1395.243402    2939.449529
 J68                                 507.505738    2902.294448
 J69                                3416.669071    3062.406170
 J70                                3273.147343    1053.463554
 J71                                2360.838299     926.618682
 J72                                 123.061378    1163.615832
 J73                                 440.354560     762.682531
 J74                                2977.643825    1143.432957
 J75                                1814.293226    1850.877567
 J76                                 970.544425    3265.636467
 J77                                 459.310611    1055.862421
 J78                                1175.003381    1125.960983
 J79                                  54.759840    1869.910622
 R1                                    4.759840    1819.910622
 R2                                  726.199903     122.539279

[VERTICES]

[END]
