[TITLE]

[JUNCTIONS]
 J1                                   11.8274
 J2                                   18.6830
 J3                                   21.5074
 J4                                   13.7001
 J5                                   30.2994
 J6                                    0.0000
 J7                                    5.5395
 J8                                   17.4379
 J9                                   28.8612
 J10                                  10.2267
 J11                                   6.9934
 J12                                   6.5776
 J13                                  19.6435
 J14                                  21.6119
 J15                                  11.1626
 J16                                  20.7262
 J17                                  19.6861
 J18                                  14.0366
 J19                                  13.7513
 J20                                  14.8131
 J21                                  27.0270
 J22                                  11.2494
 J23                                  29.6120
 J24                                  15.3649
 J25                                   1.8331
 J26                                  12.5112
 J27                                  34.3923
 J28                                   9.6147
 J29                                   9.9148
 J30                                  27.6656
 J31                                  28.7308
 J32                                  24.9520
 J33                                  22.7613
 J34                                  20.9604
 J35                                  21.3894
 J36                                   1.7637
 J37                                  16.4073
 J38                                  16.7533
 J39                                   9.5063
 J40                                  10.1336
 J41                                   3.9903
 J42                                  11.3742
 J43                                  12.3483
 J44                                  24.6211
 J45                                  16.6861
 J46                                   3.4122
 J47                                  27.2172
 J48                                  15.1085
 J49                                  17.5367
 J50                                  11.9199
 J51                                  17.3060
 J52                                   1.2424
 J53                                   4.5941
 J54                                   5.4103
 J55                                   7.8512
 J56                                  37.9196
 J57                                  19.1071
 J58                                  16.7734
 J59                                   6.3548
 J60                                   5.8730
 J61                                  30.7815
 J62                                  20.9106
 J63                                   9.3067
 J64                                  37.0381
 J65                                   4.9996
 J66                                  13.5964
 J67                                  17.4252
 J68                                  10.1634
 J69                                  22.2459
 J70                                   2.8478
 J71                                  29.6036
 J72                                  22.1728
 J73                                   2.4938
 J74                                  32.4526
 J75                                  26.7436
 J76                                  17.5440
 J77                                  16.4558
 J78                                  14.4467
 J79                                  14.1349
 J80                                  34.9154
 J81                                  11.0872
 J82                                   9.5396
 J83                                  25.2274
 J84                                  10.8144
 J85                                   1.6435

[RESERVOIRS]
 R1                                  100.6267                                
 R2                                   98.5040                                

[TANKS]

[PIPES]
 PS1                             R1                              J64                                  50.0000     800.0000     140.0000       0.0000       
 PS2                             R2                              J80                                  50.0000     800.0000     140.0000       0.0000       
 P1                              J1                              J48                                 171.8028      80.0000     107.6677       0.0000       
 P2                              J1                              J50                                 177.1467     150.0000     134.9122       0.0000       
 P3                              J1                              J83                                 157.7683     150.0000     137.2348       0.0000       
 P4                              J2                              J42                                 269.9225      80.0000     112.0550       0.0000       
 P5                              J2                              J44                                 189.2100      80.0000     135.8686       0.0000       
 P6                              J2                              J59                                 183.4311      80.0000     119.1291       0.0000       
 P7                              J3                              J15                                 291.2506      80.0000     137.7258       0.0000       
 P8                              J3                              J17                                 249.1424     100.0000     114.5949       0.0000       
 P9                              J3                              J35                                 201.5585     125.0000     112.8139       0.0000       
 P10                             J3                              J40                                 186.0541      80.0000     134.8885       0.0000       
 P11                             J3                              J57                                 216.8773      80.0000     131.5836       0.0000       
 P12                             J4                              J55                                 192.7545     100.0000     118.0032       0.0000       
 P13                             J4                              J57                                 149.1728     125.0000     119.1779       0.0000       
 P14                             J4                              J65                                 211.8841      80.0000     116.5231       0.0000       
 P15                             J5                              J80                                 159.6542     100.0000     100.8763       0.0000       
 P16                             J6                              J22                                 258.7940      80.0000     113.6905       0.0000       
 P17                             J6                              J85                                 157.6320      80.0000     109.0651       0.0000       
 P18                             J7                              J45                                 204.9193      80.0000     118.8256       0.0000       
 P19                             J7                              J55                                 295.6874      80.0000     126.9676       0.0000       
 P20                             J7                              J65                                 242.8680      80.0000     137.1350       0.0000       
 P21                             J7                              J84                                 196.2867      80.0000     138.0284       0.0000       
 P22                             J8                              J32                                 224.5559     100.0000     137.3904       0.0000       
 P23                             J8                              J38                                 161.3265     150.0000     125.7758       0.0000       
 P24                             J8                              J66                                 182.8556     150.0000     105.9496       0.0000       
 P25                             J8                              J75                                 258.3669     100.0000     110.3133       0.0000       
 P26                             J9                              J14                                 180.8949     100.0000     136.7022       0.0000       
 P27                             J9                              J16                                 280.7352     150.0000     113.4580       0.0000       
 P28                             J9                              J35                                 181.7112     150.0000     120.6609       0.0000       
 P29                             J10                             J29                                 146.9716      80.0000     129.5661       0.0000       
 P30                             J10                             J76                                 169.5218      80.0000     123.6705       0.0000       
 P31                             J11                             J41                                 241.3725      80.0000     117.0080       0.0000       
 P32                             J11                             J63                                 224.1988      80.0000     117.7705       0.0000       
 P33                             J11                             J66                                 142.1703      80.0000     131.3839       0.0000       
 P34                             J12                             J18                                 216.2011      80.0000     104.5449       0.0000       
 P35                             J13                             J14                                 185.8536     150.0000     126.1868       0.0000       
 P36                             J13                             J82                                 162.6318     150.0000     136.8325       0.0000       
 P37                             J14                             J16                                 238.8195     150.0000     122.5491       0.0000       
 P38                             J14                             J19                                 195.2307      80.0000     120.5135       0.0000       
 P39                             J15                             J17                                 165.9669      80.0000     108.0846       0.0000       
 P40                             J15                             J37                                 270.5667      80.0000     115.5729       0.0000       
 P41                             J15                             J59                                 169.9494      80.0000     104.5025       0.0000       
 P42                             J16                             J19                                 149.1659      80.0000     112.1353       0.0000       
 P43                             J16                             J20                                 181.7722     100.0000     137.8537       0.0000       
 P44                             J16                             J27                                 317.2078     250.0000     112.1451       0.0000       
 P45                             J17                             J37                                 258.7888      80.0000     131.0771       0.0000       
 P46                             J17                             J57                                 179.5583      80.0000     116.2655       0.0000       
 P47                             J18                             J37                                 299.1359      80.0000     139.3273       0.0000       
 P48                             J18                             J52                                 230.9982      80.0000     138.6293       0.0000       
 P49                             J18                             J55                                 216.2036      80.0000     123.3091       0.0000       
 P50                             J18                             J58                                 228.3896      80.0000     108.0210       0.0000       
 P51                             J19                             J20                                 207.9153      80.0000     108.1806       0.0000       
 P52                             J20                             J23                                 361.8809     300.0000     122.0124       0.0000       
 P53                             J20                             J47                                 285.0957     300.0000     114.1573       0.0000       
 P54                             J20                             J49                                 192.3926      80.0000     125.6762       0.0000       
 P55                             J21                             J49                                 271.8846     125.0000     135.0676       0.0000       
 P56                             J21                             J69                                 189.8694     125.0000     114.2050       0.0000       
 P57                             J22                             J46                                 203.2640      80.0000     139.0066       0.0000       
 P58                             J22                             J68                                 143.9719      80.0000     106.9430       0.0000       
 P59                             J22                             J78                                 152.7350     125.0000     135.7990       0.0000       
 P60                             J23                             J27                                 178.5802     300.0000     127.2490       0.0000       
 P61                             J23                             J51                                 199.3650     150.0000     132.4343       0.0000       
 P62                             J23                             J64                                 171.6264     450.0000     123.0627       0.0000       
 P63                             J24                             J63                                 206.6689      80.0000     115.2974       0.0000       
 P64                             J24                             J77                                 149.0375     100.0000     121.6197       0.0000       
 P65                             J24                             J78                                 196.1168      80.0000     136.1877       0.0000       
 P66                             J24                             J81                                 146.0901      80.0000     126.0487       0.0000       
 P67                             J25                             J26                                 255.5491      80.0000     129.5148       0.0000       
 P68                             J25                             J28                                 250.2459      80.0000     119.5423       0.0000       
 P69                             J25                             J36                                 312.4642      80.0000     131.3770       0.0000       
 P70                             J25                             J54                                 190.7922      80.0000     116.1894       0.0000       
 P71                             J25                             J73                                 248.6584      80.0000     109.3597       0.0000       
 P72                             J25                             J79                                 170.9659      80.0000     120.0613       0.0000       
 P73                             J26                             J54                                 218.1996      80.0000     130.6232       0.0000       
 P74                             J27                             J83                                 248.3994     200.0000     114.0385       0.0000       
 P75                             J28                             J69                                 137.5293     125.0000     127.0496       0.0000       
 P76                             J28                             J73                                 167.5773      80.0000     136.8272       0.0000       
 P77                             J28                             J79                                 204.4810      80.0000     126.5890       0.0000       
 P78                             J29                             J37                                 312.6693      80.0000     129.0792       0.0000       
 P79                             J29                             J44                                 261.5436      80.0000     126.9219       0.0000       
 P80                             J29                             J59                                 313.3695      80.0000     106.0678       0.0000       
 P81                             J30                             J31                                 219.4492     200.0000     119.8455       0.0000       
 P82                             J30                             J34                                 174.1242      80.0000     126.3068       0.0000       
 P83                             J30                             J62                                 250.4403     100.0000     119.3859       0.0000       
 P84                             J30                             J71                                 164.6342     200.0000     126.1807       0.0000       
 P85                             J31                             J33                                 211.6466     100.0000     118.1855       0.0000       
 P86                             J31                             J38                                 215.8408     100.0000     129.8569       0.0000       
 P87                             J31                             J62                                 177.7930      80.0000     120.7100       0.0000       
 P88                             J31                             J75                                 145.5839     150.0000     126.8811       0.0000       
 P89                             J32                             J45                                 163.2809      80.0000     113.4276       0.0000       
 P90                             J32                             J72                                 149.5397     150.0000     134.6696       0.0000       
 P91                             J32                             J75                                 130.2505     150.0000     133.3923       0.0000       
 P92                             J33                             J38                                 243.6256     200.0000     103.1037       0.0000       
 P93                             J33                             J43                                 147.5322      80.0000     138.2891       0.0000       
 P94                             J33                             J71                                 215.5309     200.0000     133.9053       0.0000       
 P95                             J34                             J47                                 260.8342      80.0000     133.2438       0.0000       
 P96                             J35                             J40                                 222.4047      80.0000     129.4968       0.0000       
 P97                             J35                             J50                                 200.1971      80.0000     117.9975       0.0000       
 P98                             J36                             J53                                 146.2881      80.0000     105.9633       0.0000       
 P99                             J36                             J70                                 163.1909      80.0000     131.6102       0.0000       
 P100                            J37                             J58                                 204.3367      80.0000     105.2128       0.0000       
 P101                            J38                             J70                                 202.5214      80.0000     104.1811       0.0000       
 P102                            J38                             J75                                 271.7660     100.0000     125.7168       0.0000       
 P103                            J39                             J62                                 163.0549      80.0000     118.9113       0.0000       
 P104                            J39                             J65                                 169.8607      80.0000     125.6859       0.0000       
 P105                            J39                             J82                                 189.8136      80.0000     103.8846       0.0000       
 P106                            J40                             J59                                 190.4368     100.0000     126.5894       0.0000       
 P107                            J40                             J60                                 195.3875     100.0000     139.8165       0.0000       
 P108                            J41                             J70                                 168.4644      80.0000     131.7194       0.0000       
 P109                            J42                             J59                                 274.2546      80.0000     134.6892       0.0000       
 P110                            J42                             J60                                 161.1747     100.0000     107.5650       0.0000       
 P111                            J43                             J53                                 152.1223     100.0000     102.2933       0.0000       
 P112                            J43                             J71                                 247.8190     150.0000     101.9673       0.0000       
 P113                            J43                             J79                                 197.6517      80.0000     123.5839       0.0000       
 P114                            J44                             J61                                 170.7099      80.0000     108.9139       0.0000       
 P115                            J44                             J76                                 264.2040      80.0000     135.5305       0.0000       
 P116                            J45                             J62                                 162.6332     100.0000     114.5254       0.0000       
 P117                            J45                             J65                                 240.5852      80.0000     111.0187       0.0000       
 P118                            J45                             J75                                 151.3615      80.0000     122.0092       0.0000       
 P119                            J47                             J71                                 229.0531     300.0000     104.1801       0.0000       
 P120                            J49                             J67                                 131.9034     150.0000     102.4174       0.0000       
 P121                            J50                             J60                                 184.1586     150.0000     130.6364       0.0000       
 P122                            J51                             J67                                 208.8202     150.0000     116.4329       0.0000       
 P123                            J52                             J55                                 180.5204      80.0000     119.3060       0.0000       
 P124                            J52                             J85                                 167.6601      80.0000     135.0600       0.0000       
 P125                            J53                             J70                                 196.0874      80.0000     123.5698       0.0000       
 P126                            J54                             J73                                 166.6477      80.0000     130.7716       0.0000       
 P127                            J56                             J74                                 153.4784     450.0000     108.7657       0.0000       
 P128                            J57                             J82                                 233.3940     125.0000     103.9907       0.0000       
 P129                            J61                             J76                                 205.8143      80.0000     120.3040       0.0000       
 P130                            J62                             J75                                 172.0095      80.0000     127.0017       0.0000       
 P131                            J63                             J77                                 162.7829     100.0000     119.8150       0.0000       
 P132                            J64                             J74                                 175.4553     450.0000     128.1385       0.0000       
 P133                            J64                             J80                                 154.1592     100.0000     139.5143       0.0000       
 P134                            J66                             J72                                 229.1000      80.0000     112.8754       0.0000       
 P135                            J66                             J77                                 141.1941     150.0000     119.8523       0.0000       
 P136                            J68                             J81                                 190.6476      80.0000     134.6618       0.0000       
 P137                            J72                             J78                                 232.4905     150.0000     123.3538       0.0000       
 P138                            J78                             J84                                 139.5827      80.0000     103.2154       0.0000       
 P139                            J84                             J85                                 159.1951      80.0000     107.2932       0.0000       

[PUMPS]

[VALVES]

[DEMANDS]
 J1                                    0.745014                                
 J2                                    1.773379                                
 J3                                    1.180283                                
 J4                                    2.744252                                
 J5                                    3.722001                                
 J6                                    0.422620                                
 J7                                    0.604643                                
 J8                                    1.418567                                
 J9                                    1.718306                                
 J10                                   1.791180                                
 J11                                   0.355260                                
 J12                                   0.787022                                
 J13                                   1.895081                                
 J14                                   0.137849                                
 J15                                   2.616298                                
 J16                                   0.959088                                
 J17                                   1.730139                                
 J18                                   0.316354                                
 J19                                   1.643930                                
 J20                                   0.447925                                
 J21                                   0.366660                                
 J22                                   3.186738                                
 J23                                   0.702325                                
 J24                                   1.177463                                
 J25                                   1.553852                                
 J26                                   1.257273                                
 J27                                   0.468777                                
 J28                                   1.446543                                
 J29                                   1.433912                                
 J30                                   0.460897                                
 J31                                   0.557876                                
 J32                                   0.932418                                
 J33                                   0.680580                                
 J34                                   1.122648                                
 J35                                   0.712743                                
 J36                                   1.137312                                
 J37                                   0.685768                                
 J38                                   1.247228                                
 J39                                   0.518836                                
 J40                                   1.098152                                
 J41                                   0.756324                                
 J42                                   0.346629                                
 J43                                   2.001644                                
 J44                                   0.708552                                
 J45                                   0.872290                                
 J46                                   1.296862                                
 J47                                   0.242604                                
 J48                                   0.942608                                
 J49                                   1.096352                                
 J50                                   0.991012                                
 J51                                   0.785345                                
 J52                                   0.861532                                
 J53                                   1.971072                                
 J54                                   1.668000                                
 J55                                   0.876870                                
 J56                                   1.414287                                
 J57                                   0.962009                                
 J58                                   2.577769                                
 J59                                   1.107591                                
 J60                                   0.528234                                
 J61                                   0.412211                                
 J62                                   0.910287                                
 J63                                   3.693587                                
 J64                                   0.473023                                
 J65                                   0.359296                                
 J66                                   0.746946                                
 J67                                   0.608379                                
 J68                                   2.225218                                
 J69                                   1.049594                                
 J70                                   1.467730                                
 J71                                   1.434502                                
 J72                                   0.554104                                
 J73                                   0.658466                                
 J74                                   0.701794                                
 J75                                   0.739586                                
 J76                                   0.606796                                
 J77                                   1.917744                                
 J78                                   3.689128                                
 J79                                   2.462780                                
 J80                                   0.749561                                
 J81                                   2.775135                                
 J82                                   0.600571                                
 J83                                   1.076740                                
 J84                                   2.784821                                
 J85                                   1.070227                                

[EMITTERS]

[STATUS]

[PATTERNS]

[CURVES]

[CONTROLS]

[RULES]

[QUALITY]

[SOURCES]

[MIXING]

[REACTIONS]
 ORDER  BULK            1.00
 ORDER  WALL            1
 ORDER  TANK            1.00
 GLOBAL BULK            0.000000
 GLOBAL WALL            0.000000

[ENERGY]
 GLOBAL EFFIC        75.0000
 DEMAND CHARGE       0.0000

[TIMES]
 DURATION            0:00:00
 HYDRAULIC TIMESTEP  1:00:00
 QUALITY TIMESTEP    0:06:00
 REPORT TIMESTEP     1:00:00
 REPORT START        0:00:00
 PATTERN TIMESTEP    1:00:00
 PATTERN START       0:00:00
 RULE TIMESTEP       0:06:00
 START CLOCKTIME     0:00:00
 STATISTIC           NONE

[OPTIONS]
 UNITS               LPS
 PRESSURE            METERS
 HEADLOSS            H-W
 UNBALANCED          STOP
 QUALITY             NONE
 DEMAND MULTIPLIER   1.0000
 EMITTER EXPONENT    0.5000
 VISCOSITY           1.000000
 DIFFUSIVITY         1.000000
 SPECIFIC GRAVITY    1.000000
 TRIALS              500
 ACCURACY            0.00000001
 TOLERANCE           0.01000000
 CHECKFREQ           2
 MAXCHECK            10
 DAMPLIMIT           0.00000000

[REPORT]
 PAGESIZE            0
 STATUS              NO
 SUMMARY             YES
 ENERGY              NO
 MESSAGES            YES
 NODES               NONE
 LINKS               NONE
 Elevation           NO
 Demand              PRECISION 2
 Head                PRECISION 2
 Pressure            PRECISION 2
 Quality             PRECISION 2
 Length              NO
 Diameter            NO
 Flow                PRECISION 2
 Velocity            PRECISION 2
 Headloss            PRECISION 2
 Quality             NO
 State               NO
 Setting             NO
 Reaction            NO

[COORDINATES]
 J1                                 1518.448273     630.247541
 J2                                 1534.067108    1220.664357
 J3                                 1172.213155     961.227735
 J4                                  894.000667    1122.735382
 J5                                 1508.516958     313.860214
 J6                                  474.101472    1462.924141
 J7                                  581.139840    1117.450715
 J8                                  233.614749     840.419923
 J9                                 1208.518802     682.423086
 J10                                1235.479466    1532.237439
 J11                                  30.661426     907.096546
 J12                                 656.896118    1558.120673
 J13                                1011.568961     857.337235
 J14                                1053.992644     692.590086
 J15                                1221.528104    1197.213824
 J16                                1072.065448     501.604505
 J17                                1079.132611    1149.377653
 J18                                 817.333276    1434.010060
 J19                                 948.823142     555.772817
 J20                                 966.678981     379.399777
 J21                                 758.208557      77.142153
 J22                                 246.849530    1381.798759
 J23                                1259.641926     200.669478
 J24                                 138.340313    1218.593330
 J25                                 326.481891     234.591727
 J26                                  86.474123     196.416422
 J27                                1294.501344     364.679470
 J28                                 493.787817      89.515761
 J29                                1304.766137    1432.175083
 J30                                 607.812880     596.246759
 J31                                 476.561161     713.416739
 J32                                 394.117132     942.391008
 J33                                 418.787328     540.979156
 J34                                 736.218113     540.792111
 J35                                1273.167142     821.370937
 J36                                 140.636007     439.282998
 J37                                1054.423850    1390.466611
 J38                                 284.449520     698.923884
 J39                                 714.351116     852.116701
 J40                                1314.827633    1011.954114
 J41                                  48.221144     698.871610
 J42                                1566.354734     999.382739
 J43                                 375.838022     415.440357
 J44                                1516.648782    1387.981456
 J45                                 548.361650     943.666096
 J46                                 302.523330    1546.485037
 J47                                 734.664664     305.122360
 J48                                1580.691650     485.512635
 J49                                 932.978627     220.720636
 J50                                1434.039672     751.570916
 J51                                1142.844629      68.657525
 J52                                 650.262252    1310.189353
 J53                                 257.757887     473.057759
 J54                                 242.420808      86.526415
 J55                                 786.935113    1245.437927
 J56                                1514.422261       2.645821
 J57                                 990.279389    1029.792657
 J58                                 985.269932    1565.923138
 J59                                1367.502708    1168.706241
 J60                                1459.810007     909.850081
 J61                                1556.332995    1523.237531
 J62                                 592.251710     796.884264
 J63                                  10.445266    1085.736802
 J64                                1399.887433     160.188540
 J65                                 757.209570     999.479232
 J66                                 137.397296     964.824692
 J67                                 977.432027     103.903477
 J68                                 138.273548    1440.077610
 J69                                 611.574429     128.502699
 J70                                 141.236568     585.031887
 J71                                 593.537562     463.768348
 J72                                 326.750339    1060.593199
 J73                                 364.977189      29.083860
 J74                                1372.922575       8.345765
 J75                                 455.213328     837.323482
 J76                                1369.569241    1553.374122
 J77                                 152.703697    1097.191849
 J78                                 318.777784    1257.981290
 J79                                 462.231626     268.970166
 J80                                1535.100685     165.855643
 J81                                  41.370376    1302.939698
 J82                                 866.015248     882.710403
 J83                                1408.594485     550.473163
 J84                                 432.026890    1208.292726
 J85                                 504.406206    1331.493547
 R1                                 1349.887433     110.188540
 R2                                 1485.100685     115.855643

[VERTICES]

[END]
