[TITLE]

[JUNCTIONS]
 J1                                   13.6314
 J2                                   21.9323
 J3                                   16.6631
 J4                                   11.9634
 J5                                   21.5920
 J6                                   10.0861
 J7                                   11.2646
 J8                                   11.9276
 J9                                   14.5619
 J10                                   4.0590
 J11                                  11.9716
 J12                                  13.9234
 J13                                  17.9343
 J14                                  24.3366
 J15                                  19.8545
 J16                                   7.5902
 J17                                   8.3004
 J18                                   6.3560
 J19                                  24.9507
 J20                                  15.0522
 J21                                  12.4022
 J22                                  23.7347
 J23                                   5.8634
 J24                                  11.3988
 J25                                  15.6717
 J26                                  13.4529
 J27                                  20.3401
 J28                                  13.1462
 J29                                   9.9364
 J30                                   0.0000
 J31                                   9.8758
 J32                                  17.8631
 J33                                  13.2180
 J34                                  23.8529
 J35                                   6.6387
 J36                                   9.8296
 J37                                  14.0315
 J38                                   8.1002
 J39                                  19.1475
 J40                                  20.6346
 J41                                   9.2338
 J42                                  10.7929
 J43                                   8.1121
 J44                                   5.9456
 J45                                  12.9625
 J46                                   6.1635
 J47                                   1.1435
 J48                                  12.2358
 J49                                   9.7640
 J50                                   6.8655
 J51                                  11.1628
 J52                                  23.8858
 J53                                  21.0931
 J54                                  21.8392
 J55                                  13.2061
 J56                                  12.5361
 J57                                  14.0092
 J58                                   3.3217
 J59                                   7.4547
 J60                                  14.4777
 J61                                   8.6145
 J62                                  15.4928
 J63                                  21.3755
 J64                                  11.4101
 J65                                   6.3777
 J66                                  10.4968
 J67                                  13.2256
 J68                                   8.6570
 J69                                  22.5066
 J70                                  24.0482
 J71                                  20.0038

[RESERVOIRS]
 R1                                   87.3089                                

[TANKS]

[PIPES]
 PS1                             R1                              J19                                  50.0000     800.0000     140.0000       0.0000       
 P1                              J1                              J8                                  705.2453      80.0000     133.4574       0.0000       
 P2                              J1                              J48                                 671.9463      80.0000     112.7463       0.0000       
 P3                              J1                              J60                                 500.4743      80.0000     106.0068       0.0000       
 P4                              J2                              J22                                 533.8510      80.0000     112.5517       0.0000       
 P5                              J2                              J29                                 612.4628      80.0000     122.7527       0.0000       
 P6                              J2                              J32                                 663.8170      80.0000     127.9437       0.0000       
 P7                              J2                              J42                                1241.0094      80.0000     125.9811       0.0000       
 P8                              J2                              J49                                1038.7893      80.0000     136.3535       0.0000       
 P9                              J3                              J18                                 719.5106      80.0000     105.3820       0.0000       
 P10                             J3                              J26                                 489.2673      80.0000     123.7512       0.0000       
 P11                             J3                              J68                                 690.6251      80.0000     105.9462       0.0000       
 P12                             J4                              J7                                  431.9336      80.0000     121.6187       0.0000       
 P13                             J4                              J33                                 428.4608      80.0000     100.1590       0.0000       
 P14                             J4                              J61                                 517.3529      80.0000     113.1092       0.0000       
 P15                             J5                              J19                                 448.4598     150.0000     116.2482       0.0000       
 P16                             J5                              J26                                 512.4676      80.0000     135.6536       0.0000       
 P17                             J5                              J57                                 447.5321     150.0000     126.5733       0.0000       
 P18                             J6                              J28                                1131.5248      80.0000     114.9794       0.0000       
 P19                             J6                              J52                                 698.3274      80.0000     115.9882       0.0000       
 P20                             J6                              J55                                 700.8654      80.0000     123.0701       0.0000       
 P21                             J6                              J70                                 807.1379      80.0000     118.2337       0.0000       
 P22                             J7                              J10                                 696.0784      80.0000     109.2655       0.0000       
 P23                             J7                              J56                                 725.8880      80.0000     123.0035       0.0000       
 P24                             J7                              J65                                 475.4858      80.0000     100.3647       0.0000       
 P25                             J8                              J45                                 604.3806      80.0000     106.7908       0.0000       
 P26                             J8                              J46                                 998.5706      80.0000     114.8682       0.0000       
 P27                             J8                              J59                                 423.6249      80.0000     100.0401       0.0000       
 P28                             J8                              J60                                 619.9343      80.0000     111.1087       0.0000       
 P29                             J9                              J39                                 398.6021      80.0000     116.8691       0.0000       
 P30                             J9                              J40                                 540.3623     125.0000     106.7091       0.0000       
 P31                             J9                              J51                                 490.9262      80.0000     121.3347       0.0000       
 P32                             J9                              J57                                 375.6025     150.0000     100.5867       0.0000       
 P33                             J10                             J47                                 377.5846      80.0000     106.6652       0.0000       
 P34                             J10                             J56                                 607.2331      80.0000     123.0240       0.0000       
 P35                             J10                             J58                                 496.8342      80.0000     103.5077       0.0000       
 P36                             J10                             J65                                 702.9305      80.0000     125.4045       0.0000       
 P37                             J11                             J13                                 543.4598      80.0000     119.7748       0.0000       
 P38                             J11                             J18                                 573.3903      80.0000     118.7543       0.0000       
 P39                             J11                             J71                                 380.9343      80.0000     106.0327       0.0000       
 P40                             J12                             J32                                 645.2967      80.0000     117.4069       0.0000       
 P41                             J12                             J38                                 948.7769      80.0000     105.5293       0.0000       
 P42                             J12                             J43                                 625.3416      80.0000     135.8834       0.0000       
 P43                             J12                             J64                                 427.5947     100.0000     118.4616       0.0000       
 P44                             J13                             J15                                 460.1877      80.0000     136.5137       0.0000       
 P45                             J13                             J62                                 470.1916      80.0000     105.2340       0.0000       
 P46                             J13                             J68                                 540.2469      80.0000     134.8718       0.0000       
 P47                             J13                             J71                                 658.7467      80.0000     133.0482       0.0000       
 P48                             J14                             J52                                 393.9197      80.0000     127.2631       0.0000       
 P49                             J14                             J63                                 560.6438      80.0000     106.1928       0.0000       
 P50                             J15                             J25                                 465.9095     150.0000     111.0381       0.0000       
 P51                             J15                             J39                                 760.0101      80.0000     129.2677       0.0000       
 P52                             J15                             J62                                 448.5248     150.0000     129.6668       0.0000       
 P53                             J16                             J24                                 494.0453      80.0000     132.4420       0.0000       
 P54                             J16                             J46                                 566.7252      80.0000     138.6278       0.0000       
 P55                             J16                             J61                                 464.2427      80.0000     106.9910       0.0000       
 P56                             J17                             J44                                 403.7880      80.0000     103.6713       0.0000       
 P57                             J17                             J50                                 434.5157      80.0000     101.8449       0.0000       
 P58                             J17                             J59                                 972.1591      80.0000     113.6568       0.0000       
 P59                             J17                             J67                                 486.8488      80.0000     114.5045       0.0000       
 P60                             J18                             J68                                 586.2887      80.0000     135.6460       0.0000       
 P61                             J19                             J26                                 664.8090     200.0000     109.5854       0.0000       
 P62                             J20                             J39                                 614.1679      80.0000     106.5351       0.0000       
 P63                             J20                             J49                                 621.8484      80.0000     114.5226       0.0000       
 P64                             J21                             J22                                 568.7510      80.0000     105.2976       0.0000       
 P65                             J21                             J29                                 622.2778      80.0000     135.4065       0.0000       
 P66                             J21                             J34                                 808.5525      80.0000     139.9509       0.0000       
 P67                             J21                             J44                                 540.6980      80.0000     107.2870       0.0000       
 P68                             J21                             J50                                 405.0689      80.0000     135.8179       0.0000       
 P69                             J21                             J66                                 776.2963      80.0000     121.6550       0.0000       
 P70                             J22                             J28                                 737.2787      80.0000     122.3284       0.0000       
 P71                             J22                             J34                                 644.3248      80.0000     100.1895       0.0000       
 P72                             J23                             J29                                 565.9009      80.0000     100.5666       0.0000       
 P73                             J23                             J32                                 807.0334      80.0000     129.5393       0.0000       
 P74                             J23                             J38                                 699.8555      80.0000     111.9894       0.0000       
 P75                             J23                             J59                                 489.1540      80.0000     132.9649       0.0000       
 P76                             J24                             J45                                 513.0057      80.0000     134.8713       0.0000       
 P77                             J25                             J27                                 827.0862      80.0000     102.4635       0.0000       
 P78                             J25                             J36                                 574.4971     100.0000     115.5425       0.0000       
 P79                             J25                             J42                                 475.5143      80.0000     114.8589       0.0000       
 P80                             J25                             J64                                 730.6354     100.0000     106.9736       0.0000       
 P81                             J26                             J51                                 419.9254     200.0000     102.3368       0.0000       
 P82                             J26                             J57                                 422.5934      80.0000     122.2129       0.0000       
 P83                             J27                             J36                                 670.4786      80.0000     136.9162       0.0000       
 P84                             J27                             J37                                 902.9635      80.0000     129.9183       0.0000       
 P85                             J27                             J71                                 396.3816      80.0000     123.9218       0.0000       
 P86                             J28                             J31                                 527.2781      80.0000     114.5671       0.0000       
 P87                             J28                             J49                                 528.7878      80.0000     104.6915       0.0000       
 P88                             J28                             J70                                 764.4860      80.0000     127.7278       0.0000       
 P89                             J29                             J44                                 389.0335      80.0000     107.7405       0.0000       
 P90                             J30                             J47                                 457.5155      80.0000     128.0939       0.0000       
 P91                             J30                             J53                                1077.2152      80.0000     122.7197       0.0000       
 P92                             J31                             J40                                1014.3326     100.0000     118.5050       0.0000       
 P93                             J31                             J49                                 462.7500      80.0000     129.6398       0.0000       
 P94                             J31                             J55                                 757.7192      80.0000     137.1960       0.0000       
 P95                             J31                             J69                                 835.9885      80.0000     127.9978       0.0000       
 P96                             J32                             J38                                 677.0128      80.0000     104.2331       0.0000       
 P97                             J33                             J38                                 693.6702      80.0000     108.1798       0.0000       
 P98                             J33                             J43                                 798.3090      80.0000     124.5743       0.0000       
 P99                             J33                             J46                                 844.0409      80.0000     104.1318       0.0000       
 P100                            J33                             J65                                 760.6327      80.0000     126.8976       0.0000       
 P101                            J34                             J63                                 432.2570      80.0000     130.7376       0.0000       
 P102                            J34                             J70                                 434.9834      80.0000     119.5561       0.0000       
 P103                            J35                             J37                                 626.7678      80.0000     131.7468       0.0000       
 P104                            J35                             J43                                 604.7471      80.0000     123.8769       0.0000       
 P105                            J35                             J65                                 477.6554      80.0000     124.3340       0.0000       
 P106                            J36                             J43                                 449.1600      80.0000     135.9881       0.0000       
 P107                            J36                             J64                                 581.4862      80.0000     117.7453       0.0000       
 P108                            J37                             J53                                 484.2112      80.0000     122.6720       0.0000       
 P109                            J37                             J58                                 470.2046      80.0000     122.4312       0.0000       
 P110                            J38                             J46                                 369.6749      80.0000     119.2752       0.0000       
 P111                            J39                             J40                                 466.9531      80.0000     139.2362       0.0000       
 P112                            J39                             J51                                 625.1219      80.0000     107.8752       0.0000       
 P113                            J40                             J54                                 448.3487      80.0000     109.1018       0.0000       
 P114                            J41                             J56                                 736.8164      80.0000     107.2295       0.0000       
 P115                            J41                             J61                                 484.1296      80.0000     120.8715       0.0000       
 P116                            J42                             J64                                 478.1450      80.0000     130.5005       0.0000       
 P117                            J43                             J65                                 516.8588      80.0000     124.0770       0.0000       
 P118                            J44                             J50                                 429.5285      80.0000     106.3137       0.0000       
 P119                            J45                             J46                                 808.5699      80.0000     126.9692       0.0000       
 P120                            J45                             J48                                 467.2888      80.0000     118.3210       0.0000       
 P121                            J46                             J59                                 910.2393      80.0000     126.8071       0.0000       
 P122                            J47                             J58                                 636.0981      80.0000     122.9190       0.0000       
 P123                            J50                             J66                                 603.9877      80.0000     130.6359       0.0000       
 P124                            J51                             J57                                 554.3075      80.0000     104.0636       0.0000       
 P125                            J51                             J62                                 434.4883     150.0000     127.6768       0.0000       
 P126                            J51                             J68                                 570.9774      80.0000     127.3650       0.0000       
 P127                            J54                             J69                                 607.6481      80.0000     139.7975       0.0000       
 P128                            J55                             J69                                 519.0505      80.0000     114.8994       0.0000       
 P129                            J59                             J60                                 613.7142      80.0000     112.9363       0.0000       
 P130                            J60                             J67                                 499.6304      80.0000     117.8096       0.0000       
 P131                            J62                             J68                                 429.7166      80.0000     111.2216       0.0000       
 P132                            J63                             J66                                 555.4404      80.0000     135.6919       0.0000       

[PUMPS]

[VALVES]

[DEMANDS]
 J1                                    0.262147                                
 J2                                    0.545786                                
 J3                                    0.564345                                
 J4                                    0.803370                                
 J5                                    0.621895                                
 J6                                    0.268149                                
 J7                                    0.545216                                
 J8                                    0.933789                                
 J9                                    0.468248                                
 J10                                   0.513284                                
 J11                                   0.612688                                
 J12                                   0.158496                                
 J13                                   0.369408                                
 J14                                   0.796621                                
 J15                                   0.424513                                
 J16                                   0.743745                                
 J17                                   0.522862                                
 J18                                   0.513408                                
 J19                                   0.638553                                
 J20                                   0.834681                                
 J21                                   0.532102                                
 J22                                   0.391024                                
 J23                                   0.623093                                
 J24                                   1.114374                                
 J25                                   0.488781                                
 J26                                   1.064390                                
 J27                                   0.496631                                
 J28                                   0.519403                                
 J29                                   1.793759                                
 J30                                   0.386410                                
 J31                                   0.998241                                
 J32                                   0.336371                                
 J33                                   0.880141                                
 J34                                   1.466748                                
 J35                                   0.323956                                
 J36                                   0.527510                                
 J37                                   1.411501                                
 J38                                   0.344301                                
 J39                                   0.474099                                
 J40                                   0.598298                                
 J41                                   0.641895                                
 J42                                   0.499360                                
 J43                                   1.283660                                
 J44                                   0.486757                                
 J45                                   0.721526                                
 J46                                   0.412424                                
 J47                                   0.376704                                
 J48                                   0.388743                                
 J49                                   0.409721                                
 J50                                   0.517877                                
 J51                                   1.497776                                
 J52                                   0.591611                                
 J53                                   0.321809                                
 J54                                   1.024104                                
 J55                                   0.371759                                
 J56                                   0.208742                                
 J57                                   0.404615                                
 J58                                   0.852933                                
 J59                                   0.953457                                
 J60                                   0.289917                                
 J61                                   0.734680                                
 J62                                   0.827515                                
 J63                                   1.268526                                
 J64                                   0.441796                                
 J65                                   0.159109                                
 J66                                   0.414479                                
 J67                                   0.316679                                
 J68                                   0.509327                                
 J69                                   0.598843                                
 J70                                   0.412902                                
 J71                                   0.764494                                

[EMITTERS]

[STATUS]

[PATTERNS]

[CURVES]

[CONTROLS]

[RULES]

[QUALITY]

[SOURCES]

[MIXING]

[REACTIONS]
 ORDER  BULK            1.00
 ORDER  WALL            1
 ORDER  TANK            1.00
 GLOBAL BULK            0.000000
 GLOBAL WALL            0.000000

[ENERGY]
 GLOBAL EFFIC        75.0000
 DEMAND CHARGE       0.0000

[TIMES]
 DURATION            0:00:00
 HYDRAULIC TIMESTEP  1:00:00
 QUALITY TIMESTEP    0:06:00
 REPORT TIMESTEP     1:00:00
 REPORT START        0:00:00
 PATTERN TIMESTEP    1:00:00
 PATTERN START       0:00:00
 RULE TIMESTEP       0:06:00
 START CLOCKTIME     0:00:00
 STATISTIC           NONE

[OPTIONS]
 UNITS               LPS
 PRESSURE            METERS
 HEADLOSS            H-W
 UNBALANCED          STOP
 QUALITY             NONE
 DEMAND MULTIPLIER   1.0000
 EMITTER EXPONENT    0.5000
 VISCOSITY           1.000000
 DIFFUSIVITY         1.000000
 SPECIFIC GRAVITY    1.000000
 TRIALS              500
 ACCURACY            0.00000001
 TOLERANCE           0.01000000
 CHECKFREQ           2
 MAXCHECK            10
 DAMPLIMIT           0.00000000

[REPORT]
 PAGESIZE            0
 STATUS              NO
 SUMMARY             YES
 ENERGY              NO
 MESSAGES            YES
 NODES               NONE
 LINKS               NONE
 Elevation           NO
 Demand              PRECISION 2
 Head                PRECISION 2
 Pressure            PRECISION 2
 Quality             PRECISION 2
 Length              NO
 Diameter            NO
 Flow                PRECISION 2
 Velocity            PRECISION 2
 Headloss            PRECISION 2
 Quality             NO
 State               NO
 Setting             NO
 Reaction            NO

[COORDINATES]
 J1                                 3493.047432    3982.891252
 J2                                 1751.541856    2850.741297
 J3                                  666.679294      51.534456
 J4                                 3369.130602    1885.285311
 J5                                   17.723092     399.368354
 J6                                  111.491167    3193.153541
 J7                                 3446.431421    1527.804464
 J8                                 3212.963322    3452.754065
 J9                                  450.014343    1034.916089
 J10                                3634.538525     949.657353
 J11                                1680.609802     307.081439
 J12                                2466.962142    1932.504877
 J13                                1521.026454     720.533507
 J14                                 443.800130    4074.025815
 J15                                1431.558099    1144.901739
 J16                                3719.127283    2522.784647
 J17                                2286.038378    3953.190431
 J18                                1329.073711       0.693244
 J19                                  70.831254      42.375978
 J20                                 964.200483    1790.838728
 J21                                1709.579859    3539.202690
 J22                                1398.208543    3181.553205
 J23                                2559.623883    3118.684732
 J24                                3958.163095    2839.065492
 J25                                1774.412958    1310.016129
 J26                                 481.852212     459.396277
 J27                                2224.541033     745.251593
 J28                                 890.359536    2724.010412
 J29                                2118.964043    3239.208394
 J30                                3874.232189     235.742517
 J31                                 698.847264    2275.890701
 J32                                2281.045149    2510.281049
 J33                                3023.616715    2004.490844
 J34                                1059.126990    3579.403078
 J35                                2862.355217     957.279038
 J36                                2298.402115    1336.106939
 J37                                2966.546296     462.659257
 J38                                2877.484886    2645.588614
 J39                                 727.065338    1292.058825
 J40                                 415.204315    1502.223463
 J41                                4069.000448    1909.196981
 J42                                1688.364405    1754.205179
 J43                                2662.026623    1459.730339
 J44                                2142.554221    3601.086723
 J45                                3672.472377    3204.699117
 J46                                3224.016961    2651.503134
 J47                                3832.442151     663.666857
 J48                                3918.833528    3534.072638
 J49                                1074.203409    2303.470976
 J50                                1885.210104    3858.668339
 J51                                 746.006004     722.516398
 J52                                 174.255649    3816.472657
 J53                                2977.506658      74.846318
 J54                                  58.761467    1624.283231
 J55                                  48.380850    2559.768687
 J56                                4041.400606    1300.344717
 J57                                 248.837592     753.342444
 J58                                3310.988069     653.881584
 J59                                2866.329047    3397.949684
 J60                                3050.620088    3937.935127
 J61                                3730.263630    2107.965535
 J62                                1138.802751     835.051160
 J63                                 890.778136    3906.310808
 J64                                2128.278067    1825.546605
 J65                                3064.722660    1290.022172
 J66                                1369.832497    4105.888462
 J67                                2679.852508    4094.865242
 J68                                1117.965016     440.113541
 J69                                   0.864733    2133.147693
 J70                                 739.817584    3360.454267
 J71                                2007.910450     449.751613
 R1                                   20.831254      -7.624022

[VERTICES]

[END]
