[TITLE]

[JUNCTIONS]
 J1                                   25.3342
 J2                                    0.9481
 J3                                    9.3884
 J4                                   34.9786
 J5                                   10.4890
 J6                                   26.3860
 J7                                   15.6620
 J8                                   10.2736
 J9                                   27.9653
 J10                                   9.2777
 J11                                  18.1433
 J12                                  13.8986
 J13                                  22.9023
 J14                                  14.4241
 J15                                  15.0781
 J16                                  27.1465
 J17                                  16.8478
 J18                                  25.3269
 J19                                  24.5073
 J20                                  23.3756
 J21                                   0.0000
 J22                                  20.4346
 J23                                  20.0948
 J24                                  27.7226
 J25                                  17.2516
 J26                                  25.1057
 J27                                  11.3869
 J28                                  22.2736
 J29                                   2.5290
 J30                                  13.2267
 J31                                  29.2757
 J32                                  18.1707
 J33                                  14.6807
 J34                                  12.4762
 J35                                  13.9756
 J36                                  31.7620
 J37                                  11.8365
 J38                                  21.7427
 J39                                  22.1601
 J40                                  20.1248
 J41                                  17.1019
 J42                                  21.3979
 J43                                  24.7281
 J44                                  28.4695
 J45                                  14.9092
 J46                                  29.2982
 J47                                  16.2294
 J48                                  27.2562
 J49                                  16.9835
 J50                                  18.0705
 J51                                  12.2978
 J52                                  14.2871
 J53                                   7.5045
 J54                                  10.5674
 J55                                  10.3987
 J56                                  23.5413
 J57                                  22.2636
 J58                                  32.7369
 J59                                  15.7307
 J60                                  22.6864
 J61                                  26.3227
 J62                                   7.7461
 J63                                  26.6834
 J64                                  19.4056

[RESERVOIRS]
 R1                                   97.1744                                

[TANKS]

[PIPES]
 PS1                             R1                              J36                                  50.0000     800.0000     140.0000       0.0000       
 P1                              J1                              J20                                 238.5341      80.0000     102.2426       0.0000       
 P2                              J1                              J27                                 459.8206      80.0000     100.7940       0.0000       
 P3                              J1                              J33                                 345.3499      80.0000     121.0382       0.0000       
 P4                              J1                              J63                                 293.6121      80.0000     120.5715       0.0000       
 P5                              J2                              J21                                 317.8487      80.0000     138.4033       0.0000       
 P6                              J2                              J29                                 298.6185      80.0000     134.2453       0.0000       
 P7                              J3                              J10                                 265.7930      80.0000     115.9701       0.0000       
 P8                              J3                              J15                                 414.8418     150.0000     130.2069       0.0000       
 P9                              J3                              J18                                 232.2275     200.0000     116.4769       0.0000       
 P10                             J3                              J50                                 371.4266     150.0000     127.8850       0.0000       
 P11                             J4                              J18                                 419.8516     250.0000     119.6177       0.0000       
 P12                             J4                              J28                                 407.2168      80.0000     138.0303       0.0000       
 P13                             J4                              J43                                 251.7624      80.0000     136.2980       0.0000       
 P14                             J4                              J52                                 438.7898     100.0000     126.8366       0.0000       
 P15                             J4                              J59                                 374.6743     250.0000     119.2201       0.0000       
 P16                             J5                              J51                                 271.6077      80.0000     113.3192       0.0000       
 P17                             J5                              J53                                 193.6834      80.0000     128.0731       0.0000       
 P18                             J6                              J26                                 270.7331      80.0000     127.1514       0.0000       
 P19                             J6                              J36                                 290.4656     125.0000     132.6671       0.0000       
 P20                             J6                              J49                                 295.5836      80.0000     122.3872       0.0000       
 P21                             J6                              J60                                 452.9460      80.0000     122.6256       0.0000       
 P22                             J7                              J14                                 231.5036      80.0000     102.8978       0.0000       
 P23                             J7                              J17                                 286.1822      80.0000     108.0061       0.0000       
 P24                             J7                              J54                                 300.8355     100.0000     137.2650       0.0000       
 P25                             J8                              J52                                 235.1427      80.0000     111.8315       0.0000       
 P26                             J9                              J19                                 289.2836      80.0000     129.1131       0.0000       
 P27                             J9                              J24                                 380.4441      80.0000     139.4267       0.0000       
 P28                             J9                              J56                                 283.9957      80.0000     105.2743       0.0000       
 P29                             J9                              J58                                 289.2843      80.0000     102.2261       0.0000       
 P30                             J10                             J20                                 277.6740      80.0000     115.1525       0.0000       
 P31                             J10                             J50                                 284.1058      80.0000     138.3115       0.0000       
 P32                             J10                             J53                                 231.5896      80.0000     135.9295       0.0000       
 P33                             J11                             J23                                 358.1279     125.0000     123.0375       0.0000       
 P34                             J11                             J29                                 331.3379      80.0000     133.1799       0.0000       
 P35                             J11                             J40                                 416.5074      80.0000     101.6082       0.0000       
 P36                             J11                             J45                                 469.9464     125.0000     106.2605       0.0000       
 P37                             J11                             J51                                 443.4323      80.0000     114.6078       0.0000       
 P38                             J12                             J37                                 219.4996      80.0000     110.4798       0.0000       
 P39                             J12                             J41                                 315.4748      80.0000     112.8816       0.0000       
 P40                             J12                             J47                                 253.3369      80.0000     105.1540       0.0000       
 P41                             J13                             J16                                 252.7556      80.0000     112.5003       0.0000       
 P42                             J13                             J22                                 299.8875      80.0000     126.8320       0.0000       
 P43                             J13                             J24                                 277.6314      80.0000     112.1310       0.0000       
 P44                             J14                             J34                                 215.2882      80.0000     107.0562       0.0000       
 P45                             J14                             J64                                 384.6168      80.0000     123.5010       0.0000       
 P46                             J15                             J38                                 463.1289     125.0000     126.4875       0.0000       
 P47                             J15                             J50                                 218.8505      80.0000     126.5724       0.0000       
 P48                             J15                             J61                                 205.6615      80.0000     121.9271       0.0000       
 P49                             J16                             J58                                 249.4352      80.0000     115.9404       0.0000       
 P50                             J17                             J25                                 223.3424      80.0000     108.4887       0.0000       
 P51                             J17                             J32                                 253.4750      80.0000     124.4586       0.0000       
 P52                             J17                             J34                                 214.4664      80.0000     137.4567       0.0000       
 P53                             J18                             J36                                 303.6214     125.0000     106.8537       0.0000       
 P54                             J18                             J44                                 419.2899      80.0000     118.0981       0.0000       
 P55                             J18                             J59                                 303.2830     125.0000     120.2977       0.0000       
 P56                             J19                             J46                                 278.6366      80.0000     131.7538       0.0000       
 P57                             J19                             J60                                 335.9061      80.0000     118.1615       0.0000       
 P58                             J20                             J40                                 269.0719      80.0000     108.5603       0.0000       
 P59                             J22                             J41                                 322.7487      80.0000     100.6851       0.0000       
 P60                             J22                             J47                                 300.4298      80.0000     132.4623       0.0000       
 P61                             J22                             J48                                 264.1716      80.0000     134.7615       0.0000       
 P62                             J24                             J38                                 279.2514     125.0000     131.8307       0.0000       
 P63                             J24                             J56                                 318.6204      80.0000     110.1044       0.0000       
 P64                             J27                             J30                                 308.8420      80.0000     115.5188       0.0000       
 P65                             J27                             J39                                 351.4958      80.0000     104.4665       0.0000       
 P66                             J27                             J55                                 473.2570      80.0000     106.6646       0.0000       
 P67                             J27                             J62                                 399.7237      80.0000     121.8595       0.0000       
 P68                             J28                             J35                                 239.2039      80.0000     123.6201       0.0000       
 P69                             J28                             J43                                 416.3012      80.0000     124.9096       0.0000       
 P70                             J29                             J55                                 223.5974      80.0000     119.0554       0.0000       
 P71                             J29                             J62                                 254.6490      80.0000     135.9548       0.0000       
 P72                             J30                             J33                                 287.2803      80.0000     136.2948       0.0000       
 P73                             J30                             J64                                 234.8308      80.0000     132.6266       0.0000       
 P74                             J31                             J46                                 253.2616      80.0000     136.0461       0.0000       
 P75                             J33                             J42                                 409.3613      80.0000     107.3150       0.0000       
 P76                             J33                             J54                                 327.5984     125.0000     104.4911       0.0000       
 P77                             J33                             J63                                 258.2524     150.0000     114.4303       0.0000       
 P78                             J35                             J51                                 240.6797      80.0000     121.6747       0.0000       
 P79                             J36                             J44                                 231.3940      80.0000     136.3338       0.0000       
 P80                             J36                             J57                                 333.0342      80.0000     131.2973       0.0000       
 P81                             J37                             J54                                 325.9979      80.0000     107.2618       0.0000       
 P82                             J38                             J48                                 410.4341      80.0000     126.7083       0.0000       
 P83                             J38                             J56                                 228.2536      80.0000     139.1098       0.0000       
 P84                             J39                             J55                                 341.6971      80.0000     110.4178       0.0000       
 P85                             J39                             J64                                 290.2852      80.0000     116.6029       0.0000       
 P86                             J40                             J45                                 326.1379      80.0000     104.6983       0.0000       
 P87                             J40                             J62                                 288.3987      80.0000     114.5757       0.0000       
 P88                             J42                             J47                                 218.0637      80.0000     101.9599       0.0000       
 P89                             J42                             J48                                 393.5243      80.0000     100.0067       0.0000       
 P90                             J42                             J61                                 388.1483      80.0000     128.5133       0.0000       
 P91                             J42                             J63                                 314.1786      80.0000     112.0129       0.0000       
 P92                             J43                             J52                                 401.0292      80.0000     136.4563       0.0000       
 P93                             J44                             J52                                 339.3630      80.0000     128.3374       0.0000       
 P94                             J44                             J57                                 238.8004      80.0000     136.9633       0.0000       
 P95                             J45                             J51                                 317.7223      80.0000     134.9963       0.0000       
 P96                             J45                             J53                                 225.7423     200.0000     126.1904       0.0000       
 P97                             J46                             J58                                 251.8975      80.0000     101.4670       0.0000       
 P98                             J47                             J54                                 423.8907      80.0000     119.4243       0.0000       
 P99                             J49                             J56                                 396.3469      80.0000     119.9365       0.0000       
 P100                            J49                             J60                                 561.1992      80.0000     134.4415       0.0000       
 P101                            J50                             J63                                 372.7058     150.0000     125.2163       0.0000       
 P102                            J53                             J59                                 237.9910     200.0000     120.3217       0.0000       
 P103                            J55                             J62                                 287.6213      80.0000     133.6214       0.0000       
 P104                            J56                             J60                                 377.9612      80.0000     124.7585       0.0000       

[PUMPS]

[VALVES]

[DEMANDS]
 J1                                    0.152655                                
 J2                                    0.361340                                
 J3                                    0.747441                                
 J4                                    0.307942                                
 J5                                    1.627903                                
 J6                                    0.596854                                
 J7                                    0.494763                                
 J8                                    1.789954                                
 J9                                    1.238191                                
 J10                                   1.040450                                
 J11                                   0.897470                                
 J12                                   0.754632                                
 J13                                   0.699229                                
 J14                                   3.031967                                
 J15                                   0.339404                                
 J16                                   1.452974                                
 J17                                   0.202798                                
 J18                                   0.625248                                
 J19                                   1.766116                                
 J20                                   1.206024                                
 J21                                   0.422891                                
 J22                                   0.162356                                
 J23                                   6.914180                                
 J24                                   5.393683                                
 J25                                   0.673561                                
 J26                                   0.338490                                
 J27                                   0.401740                                
 J28                                   0.941935                                
 J29                                   0.437909                                
 J30                                   1.635885                                
 J31                                   0.238742                                
 J32                                   0.886111                                
 J33                                   0.909452                                
 J34                                   0.437016                                
 J35                                   0.708362                                
 J36                                   0.423758                                
 J37                                   0.268184                                
 J38                                   0.145897                                
 J39                                   0.911340                                
 J40                                   0.329391                                
 J41                                   0.147071                                
 J42                                   0.705296                                
 J43                                   0.515916                                
 J44                                   0.526583                                
 J45                                   3.144734                                
 J46                                   1.149127                                
 J47                                   0.584125                                
 J48                                   0.513646                                
 J49                                   0.746194                                
 J50                                   0.183630                                
 J51                                   1.379666                                
 J52                                   1.013686                                
 J53                                   1.273518                                
 J54                                   1.319595                                
 J55                                   1.476743                                
 J56                                   1.302277                                
 J57                                   0.538362                                
 J58                                   0.308846                                
 J59                                   2.552798                                
 J60                                   0.421822                                
 J61                                   0.576152                                
 J62                                   0.915503                                
 J63                                   0.561376                                
 J64                                   0.240916                                

[EMITTERS]

[STATUS]

[PATTERNS]

[CURVES]

[CONTROLS]

[RULES]

[QUALITY]

[SOURCES]

[MIXING]

[REACTIONS]
 ORDER  BULK            1.00
 ORDER  WALL            1
 ORDER  TANK            1.00
 GLOBAL BULK            0.000000
 GLOBAL WALL            0.000000

[ENERGY]
 GLOBAL EFFIC        75.0000
 DEMAND CHARGE       0.0000

[TIMES]
 DURATION            0:00:00
 HYDRAULIC TIMESTEP  1:00:00
 QUALITY TIMESTEP    0:06:00
 REPORT TIMESTEP     1:00:00
 REPORT START        0:00:00
 PATTERN TIMESTEP    1:00:00
 PATTERN START       0:00:00
 RULE TIMESTEP       0:06:00
 START CLOCKTIME     0:00:00
 STATISTIC           NONE

[OPTIONS]
 UNITS               LPS
 PRESSURE            METERS
 HEADLOSS            H-W
 UNBALANCED          STOP
 QUALITY             NONE
 DEMAND MULTIPLIER   1.0000
 EMITTER EXPONENT    0.5000
 VISCOSITY           1.000000
 DIFFUSIVITY         1.000000
 SPECIFIC GRAVITY    1.000000
 TRIALS              500
 ACCURACY            0.00000001
 TOLERANCE           0.01000000
 CHECKFREQ           2
 MAXCHECK            10
 DAMPLIMIT           0.00000000

[REPORT]
 PAGESIZE            0
 STATUS              NO
 SUMMARY             YES
 ENERGY              NO
 MESSAGES            YES
 NODES               NONE
 LINKS               NONE
 Elevation           NO
 Demand              PRECISION 2
 Head                PRECISION 2
 Pressure            PRECISION 2
 Quality             PRECISION 2
 Length              NO
 Diameter            NO
 Flow                PRECISION 2
 Velocity            PRECISION 2
 Headloss            PRECISION 2
 Quality             NO
 State               NO
 Setting             NO
 Reaction            NO

[COORDINATES]
 J1                                 1017.417704    1353.928233
 J2                                  350.536716    2040.977014
 J3                                  761.302786     803.525214
 J4                                  309.371604     618.837266
 J5                                  348.620794    1045.885229
 J6                                 1004.209270     305.182511
 J7                                 1637.424444    1816.209295
 J8                                   42.711437     214.752174
 J9                                 1639.760267     280.935119
 J10                                 725.476359    1048.348125
 J11                                 335.426905    1602.953234
 J12                                1903.580844    1293.556896
 J13                                1843.000144     764.469105
 J14                                1543.712582    2013.454391
 J15                                1108.594838     867.219613
 J16                                1920.705683     547.614644
 J17                                1846.522090    1918.663610
 J18                                 672.360880     626.925879
 J19                                1635.308314      33.477656
 J20                                 816.985497    1275.009407
 J21                                  92.919309    2056.451498
 J22                                1792.416840     999.528720
 J23                                  38.021559    1718.948491
 J24                                1661.198191     617.429077
 J25                                2006.468183    2033.418521
 J26                                 891.783675      89.463748
 J27                                1030.962714    1728.763517
 J28                                 125.447855     947.701357
 J29                                 526.297848    1851.033991
 J30                                1315.957899    1730.961829
 J31                                2064.424193       5.832487
 J32                                1962.946053    1730.788325
 J33                                1281.685846    1490.383839
 J34                                1718.683673    2065.509502
 J35                                  35.750853    1135.736089
 J36                                 735.736066     361.659733
 J37                                1810.863883    1463.941550
 J38                                1408.849577     623.886357
 J39                                 992.241760    2014.356170
 J40                                 697.426503    1476.994608
 J41                                2052.640356    1086.131341
 J42                                1516.528791    1232.098712
 J43                                  82.363324     555.955036
 J44                                 527.008535     314.413710
 J45                                 491.755759    1254.772898
 J46                                1865.786723      94.065276
 J47                                1701.479709    1231.141986
 J48                                1597.704655     895.782705
 J49                                1147.665980     533.572175
 J50                                 988.833444    1030.058652
 J51                                 234.083197    1232.338684
 J52                                 243.819048     257.916253
 J53                                 532.900232    1048.736069
 J54                                1554.882387    1562.225063
 J55                                 699.342939    1957.340845
 J56                                1451.950125     433.137924
 J57                                 613.269900     104.376609
 J58                                1889.676915     325.912530
 J59                                 503.272713     848.969204
 J60                                1342.633159     122.436311
 J61                                1276.542046     965.872965
 J62                                 706.854456    1714.115495
 J63                                1246.469278    1271.552706
 J64                                1240.386853    1932.054370
 R1                                  685.736066     311.659733

[VERTICES]

[END]
