[TITLE]

[JUNCTIONS]
 J1                                    6.6371
 J2                                   17.5997
 J3                                   10.6539
 J4                                   17.5548
 J5                                   10.1987
 J6                                   13.5909
 J7                                    8.4508
 J8                                   14.1197
 J9                                   12.3766
 J10                                   9.8611
 J11                                   0.0000
 J12                                  12.2785
 J13                                   5.6464
 J14                                  16.3343
 J15                                   2.4782
 J16                                  20.5474
 J17                                  23.5243
 J18                                   6.9687
 J19                                   7.6810
 J20                                  17.2044
 J21                                  14.6637
 J22                                   3.2814
 J23                                  10.4741
 J24                                   4.0236
 J25                                   7.3557
 J26                                  19.5556
 J27                                  15.6080
 J28                                   8.0434
 J29                                   8.3522
 J30                                  15.0923
 J31                                  13.6118
 J32                                  18.7590
 J33                                   9.7522
 J34                                  14.8320
 J35                                  14.2431
 J36                                  10.7640
 J37                                   8.5979
 J38                                  17.1353

[RESERVOIRS]
 R1                                   84.3074                                

[TANKS]

[PIPES]
 PS1                             R1                              J26                                  50.0000     800.0000     140.0000       0.0000       
 P1                              J1                              J16                                 511.4212      80.0000     115.8278       0.0000       
 P2                              J1                              J29                                 307.3219      80.0000     109.3511       0.0000       
 P3                              J2                              J8                                  405.4823      80.0000     116.2302       0.0000       
 P4                              J2                              J30                                 322.6727      80.0000     127.2421       0.0000       
 P5                              J3                              J9                                  426.2624      80.0000     126.6325       0.0000       
 P6                              J4                              J5                                  478.8440      80.0000     132.4890       0.0000       
 P7                              J4                              J6                                  290.8380      80.0000     121.1392       0.0000       
 P8                              J4                              J26                                 301.9913      80.0000     126.9788       0.0000       
 P9                              J4                              J37                                 396.6535     100.0000     104.0541       0.0000       
 P10                             J5                              J6                                  374.6123      80.0000     107.8871       0.0000       
 P11                             J5                              J10                                 327.3820      80.0000     115.4778       0.0000       
 P12                             J5                              J34                                 574.5881      80.0000     111.1468       0.0000       
 P13                             J6                              J18                                 370.5364      80.0000     139.8923       0.0000       
 P14                             J6                              J22                                 377.8882      80.0000     116.2671       0.0000       
 P15                             J7                              J21                                 373.9943      80.0000     132.0252       0.0000       
 P16                             J7                              J27                                 293.1836      80.0000     101.6627       0.0000       
 P17                             J7                              J33                                 447.8801      80.0000     102.3773       0.0000       
 P18                             J8                              J31                                 277.6482      80.0000     124.6871       0.0000       
 P19                             J8                              J35                                 380.8046      80.0000     132.9374       0.0000       
 P20                             J8                              J38                                 319.3616      80.0000     134.8289       0.0000       
 P21                             J9                              J10                                 481.4066      80.0000     105.6406       0.0000       
 P22                             J9                              J13                                 454.6610      80.0000     121.1912       0.0000       
 P23                             J9                              J19                                 269.1079      80.0000     138.3411       0.0000       
 P24                             J10                             J12                                 375.9396      80.0000     127.5623       0.0000       
 P25                             J10                             J19                                 514.3783      80.0000     101.7943       0.0000       
 P26                             J10                             J23                                 297.6589      80.0000     130.8816       0.0000       
 P27                             J11                             J14                                 484.5813      80.0000     115.8037       0.0000       
 P28                             J11                             J15                                 413.1068      80.0000     123.1633       0.0000       
 P29                             J11                             J22                                 409.0162      80.0000     105.7648       0.0000       
 P30                             J11                             J36                                 375.8914      80.0000     120.5011       0.0000       
 P31                             J12                             J23                                 324.1305      80.0000     109.3733       0.0000       
 P32                             J12                             J34                                 314.6376     100.0000     132.9815       0.0000       
 P33                             J12                             J38                                 394.6174      80.0000     111.4071       0.0000       
 P34                             J13                             J18                                 372.0591      80.0000     107.1891       0.0000       
 P35                             J14                             J29                                 673.6902      80.0000     126.8194       0.0000       
 P36                             J14                             J36                                 401.4279      80.0000     123.2509       0.0000       
 P37                             J15                             J16                                 518.4522      80.0000     103.1497       0.0000       
 P38                             J15                             J26                                 377.8345      80.0000     108.5504       0.0000       
 P39                             J15                             J29                                 285.6993      80.0000     139.1677       0.0000       
 P40                             J16                             J26                                 483.4611      80.0000     103.0298       0.0000       
 P41                             J16                             J33                                 268.5203     100.0000     126.3558       0.0000       
 P42                             J17                             J20                                 438.8306     150.0000     131.0165       0.0000       
 P43                             J17                             J27                                 354.0432     200.0000     129.9397       0.0000       
 P44                             J18                             J22                                 345.1139      80.0000     137.6790       0.0000       
 P45                             J18                             J24                                 380.5360      80.0000     116.6185       0.0000       
 P46                             J19                             J30                                 474.5468      80.0000     122.5661       0.0000       
 P47                             J20                             J32                                 401.0341     125.0000     131.6785       0.0000       
 P48                             J20                             J35                                 451.1439     100.0000     111.6629       0.0000       
 P49                             J22                             J24                                 292.2879      80.0000     131.8720       0.0000       
 P50                             J22                             J36                                 406.1099      80.0000     102.1284       0.0000       
 P51                             J23                             J30                                 389.4861      80.0000     137.7030       0.0000       
 P52                             J24                             J36                                 393.5003      80.0000     132.2408       0.0000       
 P53                             J25                             J28                                 283.3919     100.0000     100.5891       0.0000       
 P54                             J25                             J34                                 257.5972      80.0000     126.7700       0.0000       
 P55                             J25                             J37                                 276.7066     100.0000     119.0255       0.0000       
 P56                             J26                             J37                                 366.6898      80.0000     118.1198       0.0000       
 P57                             J27                             J28                                 370.4649     125.0000     132.6174       0.0000       
 P58                             J27                             J33                                 428.6964     125.0000     128.4140       0.0000       
 P59                             J28                             J33                                 342.6445      80.0000     118.0873       0.0000       
 P60                             J31                             J35                                 272.6632      80.0000     130.0504       0.0000       
 P61                             J32                             J34                                 286.6021     125.0000     111.0013       0.0000       
 P62                             J32                             J35                                 468.6778      80.0000     139.2147       0.0000       

[PUMPS]

[VALVES]

[DEMANDS]
 J1                                    1.115682                                
 J2                                    1.646835                                
 J3                                    0.433376                                
 J4                                    3.007328                                
 J5                                    0.870827                                
 J6                                    0.190413                                
 J7                                    1.061872                                
 J8                                    1.507154                                
 J9                                    0.662576                                
 J10                                   0.649037                                
 J11                                   1.755798                                
 J12                                   0.498359                                
 J13                                   1.118658                                
 J14                                   0.540069                                
 J15                                   0.834163                                
 J16                                   1.918170                                
 J17                                   0.406457                                
 J18                                   0.381464                                
 J19                                   1.188662                                
 J20                                   2.083710                                
 J21                                   0.742376                                
 J22                                   2.349140                                
 J23                                   4.005904                                
 J24                                   1.056636                                
 J25                                   0.913850                                
 J26                                   1.330733                                
 J27                                   0.497401                                
 J28                                   0.246456                                
 J29                                   0.625612                                
 J30                                   1.136398                                
 J31                                   1.139526                                
 J32                                   1.229912                                
 J33                                   0.718253                                
 J34                                   2.694986                                
 J35                                   0.963400                                
 J36                                   1.672714                                
 J37                                   0.913793                                
 J38                                   0.507040                                

[EMITTERS]

[STATUS]

[PATTERNS]

[CURVES]

[CONTROLS]

[RULES]

[QUALITY]

[SOURCES]

[MIXING]

[REACTIONS]
 ORDER  BULK            1.00
 ORDER  WALL            1
 ORDER  TANK            1.00
 GLOBAL BULK            0.000000
 GLOBAL WALL            0.000000

[ENERGY]
 GLOBAL EFFIC        75.0000
 DEMAND CHARGE       0.0000

[TIMES]
 DURATION            0:00:00
 HYDRAULIC TIMESTEP  1:00:00
 QUALITY TIMESTEP    0:06:00
 REPORT TIMESTEP     1:00:00
 REPORT START        0:00:00
 PATTERN TIMESTEP    1:00:00
 PATTERN START       0:00:00
 RULE TIMESTEP       0:06:00
 START CLOCKTIME     0:00:00
 STATISTIC           NONE

[OPTIONS]
 UNITS               LPS
 PRESSURE            METERS
 HEADLOSS            H-W
 UNBALANCED          STOP
 QUALITY             NONE
 DEMAND MULTIPLIER   1.0000
 EMITTER EXPONENT    0.5000
 VISCOSITY           1.000000
 DIFFUSIVITY         1.000000
 SPECIFIC GRAVITY    1.000000
 TRIALS              500
 ACCURACY            0.00000001
 TOLERANCE           0.01000000
 CHECKFREQ           2
 MAXCHECK            10
 DAMPLIMIT           0.00000000

[REPORT]
 PAGESIZE            0
 STATUS              NO
 SUMMARY             YES
 ENERGY              NO
 MESSAGES            YES
 NODES               NONE
 LINKS               NONE
 Elevation           NO
 Demand              PRECISION 2
 Head                PRECISION 2
 Pressure            PRECISION 2
 Quality             PRECISION 2
 Length              NO
 Diameter            NO
 Flow                PRECISION 2
 Velocity            PRECISION 2
 Headloss            PRECISION 2
 Quality             NO
 State               NO
 Setting             NO
 Reaction            NO

[COORDINATES]
 J1                                 1149.995340    1995.446153
 J2                                  619.461450     132.563604
 J3                                 1765.818500      80.294834
 J4                                 1318.969270    1187.501435
 J5                                 1182.596566     799.164811
 J6                                 1470.210589     963.381124
 J7                                  335.819406    1681.574524
 J8                                  274.560584     266.728058
 J9                                 1452.750653     297.763991
 J10                                1120.023868     524.559183
 J11                                1641.454093    1405.518431
 J12                                 798.024889     611.494435
 J13                                1823.828812     480.533525
 J14                                1924.261664    1713.377683
 J15                                1349.047603    1665.738188
 J16                                 867.743231    1664.312296
 J17                                  28.641969    1315.526055
 J18                                1766.984203     799.487159
 J19                                1313.803927     117.054863
 J20                                 180.658432     970.886471
 J21                                 187.189955    1963.786252
 J22                                1779.279388    1102.676809
 J23                                 886.716095     366.018995
 J24                                2000.826348    1015.660725
 J25                                 755.272515    1075.309942
 J26                                1182.625636    1399.543633
 J27                                 303.127604    1445.445550
 J28                                 580.548366    1261.380352
 J29                                1408.910541    1924.576203
 J30                                 879.367871      33.028584
 J31                                  46.301451     297.698210
 J32                                 455.689028     805.200363
 J33                                 670.059798    1541.498380
 J34                                 685.749436     855.270150
 J35                                  96.918549     550.762942
 J36                                1993.608001    1385.433239
 J37                                 993.660630    1123.750080
 J38                                 501.994565     456.122843
 R1                                 1132.625636    1349.543633

[VERTICES]

[END]
