[TITLE]

[JUNCTIONS]
 J1                                   13.0535
 J2                                   14.1311
 J3                                   14.8367
 J4                                    3.4869
 J5                                    6.8009
 J6                                    6.6740
 J7                                    6.2356
 J8                                    6.5514
 J9                                    3.4797
 J10                                   5.2566
 J11                                   7.5990
 J12                                  11.3144
 J13                                  16.6000
 J14                                   0.0000
 J15                                  11.3223
 J16                                   5.0753
 J17                                   2.7118
 J18                                  13.8912
 J19                                  14.1161
 J20                                   5.7278
 J21                                  11.0422
 J22                                  10.1408
 J23                                  12.1346
 J24                                  10.2266
 J25                                  17.8246
 J26                                  11.0411
 J27                                  13.9781
 J28                                   8.6064
 J29                                   4.2864
 J30                                   5.4346
 J31                                   4.5158
 J32                                  12.6430
 J33                                  13.1503
 J34                                   9.4622
 J35                                   4.1625
 J36                                   6.6166
 J37                                  11.2869
 J38                                   6.1576
 J39                                  15.3901
 J40                                  12.4816
 J41                                  10.6171
 J42                                  15.2462
 J43                                   7.3976
 J44                                  18.1436
 J45                                   7.6070
 J46                                   8.2865
 J47                                   6.1045
 J48                                   6.8016
 J49                                  10.8877
 J50                                  12.1956
 J51                                  10.4357
 J52                                   7.1578
 J53                                   8.5474
 J54                                   8.5110
 J55                                  13.4098
 J56                                   6.5801
 J57                                  10.2410
 J58                                   8.4159
 J59                                   4.9788
 J60                                  13.2959
 J61                                   9.9535
 J62                                   1.9137
 J63                                  12.8377
 J64                                  10.7909
 J65                                  14.8394
 J66                                  16.0293
 J67                                   9.7539
 J68                                   7.0493
 J69                                  10.3341
 J70                                  13.8631
 J71                                   6.7298
 J72                                  12.4291
 J73                                  11.2869
 J74                                   5.7903
 J75                                  17.6496
 J76                                   7.9075
 J77                                   7.9973
 J78                                   4.5871
 J79                                   6.8924
 J80                                   4.8563
 J81                                   7.3621
 J82                                  14.0104
 J83                                   7.5764
 J84                                   7.2413
 J85                                  13.2546
 J86                                   7.5373
 J87                                   8.8334

[RESERVOIRS]
 R1                                   72.1647                                
 R2                                   72.7354                                

[TANKS]

[PIPES]
 PS1                             R1                              J66                                  50.0000     800.0000     140.0000       0.0000       
 PS2                             R2                              J13                                  50.0000     800.0000     140.0000       0.0000       
 P1                              J1                              J12                                 422.6126      80.0000     138.4539       0.0000       
 P2                              J1                              J21                                 344.7905      80.0000     110.7455       0.0000       
 P3                              J1                              J54                                 487.6526     200.0000     100.2902       0.0000       
 P4                              J1                              J63                                 348.6773     200.0000     119.8170       0.0000       
 P5                              J2                              J15                                 367.0151      80.0000     121.9688       0.0000       
 P6                              J2                              J18                                 322.8853      80.0000     109.9103       0.0000       
 P7                              J2                              J42                                 245.1576      80.0000     131.1262       0.0000       
 P8                              J3                              J33                                 241.6907      80.0000     118.2523       0.0000       
 P9                              J3                              J65                                 304.6060      80.0000     136.5417       0.0000       
 P10                             J3                              J73                                 415.4872      80.0000     116.5324       0.0000       
 P11                             J3                              J75                                 344.1356      80.0000     116.3221       0.0000       
 P12                             J4                              J29                                 272.8659      80.0000     138.3148       0.0000       
 P13                             J4                              J38                                 297.7389      80.0000     121.8137       0.0000       
 P14                             J4                              J62                                 315.5160      80.0000     131.4315       0.0000       
 P15                             J4                              J80                                 409.1279      80.0000     109.7571       0.0000       
 P16                             J4                              J81                                 442.2418      80.0000     129.0511       0.0000       
 P17                             J5                              J38                                 284.2257      80.0000     121.9502       0.0000       
 P18                             J5                              J45                                 277.7344      80.0000     109.1918       0.0000       
 P19                             J5                              J47                                 543.9008      80.0000     139.7772       0.0000       
 P20                             J5                              J86                                 243.6228      80.0000     105.9887       0.0000       
 P21                             J6                              J69                                 252.4469      80.0000     134.4327       0.0000       
 P22                             J6                              J83                                 301.0098      80.0000     107.6823       0.0000       
 P23                             J6                              J87                                 372.7573      80.0000     100.1861       0.0000       
 P24                             J7                              J24                                 410.2386      80.0000     105.9586       0.0000       
 P25                             J7                              J36                                 364.0171      80.0000     113.5167       0.0000       
 P26                             J7                              J49                                 383.4180      80.0000     134.7159       0.0000       
 P27                             J7                              J74                                 353.8373      80.0000     138.7421       0.0000       
 P28                             J7                              J76                                 285.1396      80.0000     103.0941       0.0000       
 P29                             J8                              J20                                 265.1927      80.0000     114.3036       0.0000       
 P30                             J8                              J24                                 442.2416      80.0000     116.5655       0.0000       
 P31                             J8                              J72                                 382.0457      80.0000     112.3799       0.0000       
 P32                             J9                              J14                                 608.8342      80.0000     138.7173       0.0000       
 P33                             J9                              J29                                 460.9970      80.0000     100.9331       0.0000       
 P34                             J9                              J57                                 320.1093      80.0000     126.5341       0.0000       
 P35                             J9                              J61                                 529.6159      80.0000     116.5095       0.0000       
 P36                             J9                              J62                                 247.7993      80.0000     104.7583       0.0000       
 P37                             J10                             J11                                 479.2896      80.0000     117.3991       0.0000       
 P38                             J10                             J48                                 385.1072      80.0000     105.9184       0.0000       
 P39                             J10                             J59                                 251.0855      80.0000     138.5303       0.0000       
 P40                             J10                             J79                                 285.8773      80.0000     119.2252       0.0000       
 P41                             J11                             J48                                 360.9845      80.0000     120.3577       0.0000       
 P42                             J11                             J52                                 270.1711      80.0000     130.1878       0.0000       
 P43                             J11                             J77                                 313.7344      80.0000     125.8180       0.0000       
 P44                             J11                             J86                                 268.2058      80.0000     107.6324       0.0000       
 P45                             J12                             J60                                 413.9535      80.0000     107.0432       0.0000       
 P46                             J12                             J83                                 303.8636      80.0000     108.9796       0.0000       
 P47                             J12                             J87                                 313.9754      80.0000     109.2868       0.0000       
 P48                             J13                             J27                                 239.0379      80.0000     137.6545       0.0000       
 P49                             J13                             J42                                 312.6867      80.0000     107.1405       0.0000       
 P50                             J13                             J65                                 249.0232      80.0000     109.5434       0.0000       
 P51                             J13                             J75                                 261.3148      80.0000     124.1799       0.0000       
 P52                             J14                             J31                                 438.8193      80.0000     119.9520       0.0000       
 P53                             J15                             J21                                 439.7975      80.0000     119.7491       0.0000       
 P54                             J15                             J26                                 322.3044      80.0000     128.7391       0.0000       
 P55                             J15                             J50                                 404.0471      80.0000     103.4503       0.0000       
 P56                             J16                             J31                                 308.9599      80.0000     116.3619       0.0000       
 P57                             J16                             J43                                 222.7873      80.0000     120.4457       0.0000       
 P58                             J16                             J62                                 385.3386      80.0000     139.1041       0.0000       
 P59                             J16                             J81                                 296.4875      80.0000     103.8654       0.0000       
 P60                             J17                             J32                                 431.5854     150.0000     129.8996       0.0000       
 P61                             J17                             J35                                 388.6507      80.0000     109.3079       0.0000       
 P62                             J17                             J56                                 358.3475     150.0000     138.9075       0.0000       
 P63                             J18                             J49                                 264.6478      80.0000     130.1980       0.0000       
 P64                             J18                             J63                                 401.6510      80.0000     120.1090       0.0000       
 P65                             J18                             J82                                 221.1804      80.0000     116.1418       0.0000       
 P66                             J19                             J39                                 316.6626      80.0000     122.6302       0.0000       
 P67                             J19                             J55                                 311.4707      80.0000     124.4356       0.0000       
 P68                             J19                             J67                                 296.7265      80.0000     109.4349       0.0000       
 P69                             J19                             J69                                 340.0882      80.0000     109.2637       0.0000       
 P70                             J20                             J74                                 284.7868      80.0000     117.9603       0.0000       
 P71                             J21                             J22                                 445.9496      80.0000     138.9309       0.0000       
 P72                             J21                             J54                                 447.7927     100.0000     121.2752       0.0000       
 P73                             J22                             J50                                 476.3976     100.0000     129.8540       0.0000       
 P74                             J22                             J54                                 309.4963      80.0000     101.0048       0.0000       
 P75                             J22                             J67                                 393.7537     100.0000     135.2003       0.0000       
 P76                             J23                             J35                                 472.2990     150.0000     122.2564       0.0000       
 P77                             J23                             J56                                 446.0909      80.0000     106.2007       0.0000       
 P78                             J23                             J70                                 244.3388     125.0000     106.0236       0.0000       
 P79                             J23                             J85                                 478.0874      80.0000     136.6744       0.0000       
 P80                             J24                             J27                                 381.3257      80.0000     123.8167       0.0000       
 P81                             J24                             J49                                 227.4761      80.0000     102.0975       0.0000       
 P82                             J24                             J82                                 264.9762      80.0000     108.8421       0.0000       
 P83                             J25                             J39                                 329.9505     250.0000     116.6843       0.0000       
 P84                             J25                             J44                                 275.6742     250.0000     108.3069       0.0000       
 P85                             J26                             J50                                 439.5342      80.0000     102.9315       0.0000       
 P86                             J26                             J73                                 242.2163      80.0000     108.1655       0.0000       
 P87                             J27                             J42                                 417.6230      80.0000     134.8767       0.0000       
 P88                             J27                             J72                                 260.0122      80.0000     132.7622       0.0000       
 P89                             J27                             J82                                 371.5928      80.0000     115.3682       0.0000       
 P90                             J28                             J34                                 318.8952      80.0000     135.7092       0.0000       
 P91                             J28                             J48                                 408.7555      80.0000     128.1759       0.0000       
 P92                             J28                             J68                                 314.0338      80.0000     107.5589       0.0000       
 P93                             J29                             J41                                 308.7132      80.0000     104.3318       0.0000       
 P94                             J29                             J57                                 387.2938      80.0000     115.2824       0.0000       
 P95                             J29                             J62                                 397.0447      80.0000     110.2409       0.0000       
 P96                             J29                             J80                                 264.5751      80.0000     102.6651       0.0000       
 P97                             J30                             J37                                 454.4486      80.0000     107.2420       0.0000       
 P98                             J30                             J46                                 532.4767      80.0000     121.7395       0.0000       
 P99                             J30                             J47                                 430.0741      80.0000     125.5413       0.0000       
 P100                            J30                             J78                                 290.1914      80.0000     112.5738       0.0000       
 P101                            J32                             J58                                 283.6827      80.0000     129.6010       0.0000       
 P102                            J32                             J66                                 271.8225     150.0000     131.0567       0.0000       
 P103                            J34                             J53                                 247.1392      80.0000     101.3845       0.0000       
 P104                            J34                             J77                                 274.5197      80.0000     122.2670       0.0000       
 P105                            J35                             J58                                 338.0498     150.0000     101.9075       0.0000       
 P106                            J35                             J87                                 428.9008      80.0000     137.1768       0.0000       
 P107                            J36                             J47                                 371.1541     125.0000     138.3554       0.0000       
 P108                            J36                             J52                                 242.2013      80.0000     107.7277       0.0000       
 P109                            J36                             J53                                 386.6106      80.0000     112.3778       0.0000       
 P110                            J36                             J77                                 258.3987      80.0000     120.1930       0.0000       
 P111                            J37                             J41                                 378.3954      80.0000     122.0543       0.0000       
 P112                            J37                             J60                                 311.6099      80.0000     131.1666       0.0000       
 P113                            J37                             J70                                 352.2900      80.0000     103.9921       0.0000       
 P114                            J38                             J45                                 226.4265      80.0000     104.0672       0.0000       
 P115                            J38                             J78                                 224.3670     100.0000     134.6527       0.0000       
 P116                            J38                             J81                                 561.6153      80.0000     136.6800       0.0000       
 P117                            J39                             J66                                 338.0664     100.0000     133.9994       0.0000       
 P118                            J39                             J69                                 251.1448     250.0000     139.5900       0.0000       
 P119                            J40                             J57                                 223.2244      80.0000     126.3533       0.0000       
 P120                            J40                             J61                                 440.9264      80.0000     106.0042       0.0000       
 P121                            J40                             J64                                 393.5398      80.0000     114.1839       0.0000       
 P122                            J40                             J85                                 302.9408      80.0000     109.9956       0.0000       
 P123                            J41                             J57                                 458.5407      80.0000     138.6613       0.0000       
 P124                            J41                             J70                                 403.1960     125.0000     133.2797       0.0000       
 P125                            J41                             J80                                 349.3626     100.0000     134.7031       0.0000       
 P126                            J42                             J65                                 378.1221      80.0000     118.9249       0.0000       
 P127                            J43                             J81                                 243.8112      80.0000     114.5062       0.0000       
 P128                            J44                             J66                                 280.3638     250.0000     112.2573       0.0000       
 P129                            J45                             J79                                 249.5649      80.0000     101.5519       0.0000       
 P130                            J45                             J84                                 278.6256      80.0000     105.5499       0.0000       
 P131                            J46                             J47                                 232.7869     125.0000     103.5065       0.0000       
 P132                            J46                             J63                                 322.9721     150.0000     105.8749       0.0000       
 P133                            J46                             J76                                 217.9850      80.0000     125.4950       0.0000       
 P134                            J47                             J52                                 377.7543      80.0000     129.4251       0.0000       
 P135                            J47                             J76                                 295.3828      80.0000     121.1305       0.0000       
 P136                            J48                             J71                                 400.9147      80.0000     118.6843       0.0000       
 P137                            J49                             J76                                 280.4601      80.0000     136.6566       0.0000       
 P138                            J49                             J82                                 261.9935      80.0000     108.3230       0.0000       
 P139                            J51                             J53                                 236.7834      80.0000     108.8600       0.0000       
 P140                            J53                             J74                                 363.1873      80.0000     108.0830       0.0000       
 P141                            J54                             J67                                 281.1176     200.0000     125.0173       0.0000       
 P142                            J54                             J83                                 220.4728      80.0000     120.4038       0.0000       
 P143                            J55                             J67                                 375.1041      80.0000     111.5630       0.0000       
 P144                            J56                             J64                                 451.1289      80.0000     132.4665       0.0000       
 P145                            J56                             J85                                 329.6326     100.0000     105.6443       0.0000       
 P146                            J57                             J85                                 370.7596      80.0000     112.4748       0.0000       
 P147                            J58                             J66                                 318.5342     150.0000     101.6462       0.0000       
 P148                            J59                             J71                                 419.6606      80.0000     120.6131       0.0000       
 P149                            J60                             J63                                 363.7667      80.0000     135.0838       0.0000       
 P150                            J61                             J64                                 569.3236      80.0000     114.9451       0.0000       
 P151                            J64                             J85                                 347.8640      80.0000     112.3617       0.0000       
 P152                            J65                             J73                                 280.9409      80.0000     109.8658       0.0000       
 P153                            J65                             J75                                 293.9484      80.0000     135.5768       0.0000       
 P154                            J67                             J69                                 258.9830     250.0000     139.2181       0.0000       
 P155                            J67                             J83                                 323.2239      80.0000     136.8220       0.0000       
 P156                            J68                             J71                                 259.8868      80.0000     131.8570       0.0000       
 P157                            J78                             J80                                 282.1276     100.0000     122.4300       0.0000       
 P158                            J79                             J84                                 383.8281      80.0000     113.3557       0.0000       
 P159                            J81                             J84                                 399.5082      80.0000     137.5295       0.0000       
 P160                            J83                             J87                                 357.0097      80.0000     130.7320       0.0000       

[PUMPS]

[VALVES]

[DEMANDS]
 J1                                    0.162959                                
 J2                                    0.545933                                
 J3                                    0.143066                                
 J4                                    0.195912                                
 J5                                    0.684435                                
 J6                                    0.268695                                
 J7                                    0.223762                                
 J8                                    0.828259                                
 J9                                    1.820432                                
 J10                                   1.214457                                
 J11                                   0.525903                                
 J12                                   0.298539                                
 J13                                   0.218875                                
 J14                                   0.732378                                
 J15                                   0.409387                                
 J16                                   0.301396                                
 J17                                   0.522323                                
 J18                                   0.541990                                
 J19                                   1.153504                                
 J20                                   0.457599                                
 J21                                   2.236872                                
 J22                                   1.080699                                
 J23                                   0.758067                                
 J24                                   0.551383                                
 J25                                   0.552874                                
 J26                                   1.891190                                
 J27                                   0.508707                                
 J28                                   0.371373                                
 J29                                   0.510322                                
 J30                                   0.911796                                
 J31                                   0.204009                                
 J32                                   0.666629                                
 J33                                   0.521256                                
 J34                                   0.706897                                
 J35                                   0.195887                                
 J36                                   0.857531                                
 J37                                   0.820213                                
 J38                                   0.228705                                
 J39                                   3.625559                                
 J40                                   0.430861                                
 J41                                   0.064610                                
 J42                                   1.287281                                
 J43                                   0.467659                                
 J44                                   0.097908                                
 J45                                   0.068337                                
 J46                                   1.693965                                
 J47                                   0.610878                                
 J48                                   1.499698                                
 J49                                   0.566131                                
 J50                                   0.881527                                
 J51                                   1.006736                                
 J52                                   0.423642                                
 J53                                   1.739069                                
 J54                                   1.409191                                
 J55                                   0.319173                                
 J56                                   3.312737                                
 J57                                   0.528758                                
 J58                                   1.074904                                
 J59                                   0.230147                                
 J60                                   1.038033                                
 J61                                   0.256498                                
 J62                                   0.109081                                
 J63                                   0.777969                                
 J64                                   2.796556                                
 J65                                   0.294373                                
 J66                                   0.885987                                
 J67                                   0.807450                                
 J68                                   1.735570                                
 J69                                   1.044550                                
 J70                                   0.341293                                
 J71                                   0.274273                                
 J72                                   0.974337                                
 J73                                   0.603346                                
 J74                                   0.284534                                
 J75                                   0.215812                                
 J76                                   0.269145                                
 J77                                   0.388057                                
 J78                                   0.711036                                
 J79                                   0.334724                                
 J80                                   0.732325                                
 J81                                   0.844483                                
 J82                                   0.161229                                
 J83                                   0.573955                                
 J84                                   1.703347                                
 J85                                   0.128150                                
 J86                                   0.397008                                
 J87                                   0.649203                                

[EMITTERS]

[STATUS]

[PATTERNS]

[CURVES]

[CONTROLS]

[RULES]

[QUALITY]

[SOURCES]

[MIXING]

[REACTIONS]
 ORDER  BULK            1.00
 ORDER  WALL            1
 ORDER  TANK            1.00
 GLOBAL BULK            0.000000
 GLOBAL WALL            0.000000

[ENERGY]
 GLOBAL EFFIC        75.0000
 DEMAND CHARGE       0.0000

[TIMES]
 DURATION            0:00:00
 HYDRAULIC TIMESTEP  1:00:00
 QUALITY TIMESTEP    0:06:00
 REPORT TIMESTEP     1:00:00
 REPORT START        0:00:00
 PATTERN TIMESTEP    1:00:00
 PATTERN START       0:00:00
 RULE TIMESTEP       0:06:00
 START CLOCKTIME     0:00:00
 STATISTIC           NONE

[OPTIONS]
 UNITS               LPS
 PRESSURE            METERS
 HEADLOSS            H-W
 UNBALANCED          STOP
 QUALITY             NONE
 DEMAND MULTIPLIER   1.0000
 EMITTER EXPONENT    0.5000
 VISCOSITY           1.000000
 DIFFUSIVITY         1.000000
 SPECIFIC GRAVITY    1.000000
 TRIALS              500
 ACCURACY            0.00000001
 TOLERANCE           0.01000000
 CHECKFREQ           2
 MAXCHECK            10
 DAMPLIMIT           0.00000000

[REPORT]
 PAGESIZE            0
 STATUS              NO
 SUMMARY             YES
 ENERGY              NO
 MESSAGES            YES
 NODES               NONE
 LINKS               NONE
 Elevation           NO
 Demand              PRECISION 2
 Head                PRECISION 2
 Pressure            PRECISION 2
 Quality             PRECISION 2
 Length              NO
 Diameter            NO
 Flow                PRECISION 2
 Velocity            PRECISION 2
 Headloss            PRECISION 2
 Quality             NO
 State               NO
 Setting             NO
 Reaction            NO

[COORDINATES]
 J1                                 1301.767229    1831.702847
 J2                                  781.341391    2001.651470
 J3                                  131.594789    2467.708478
 J4                                 1703.890183     574.923213
 J5                                 1173.083525     630.724073
 J6                                 2018.607186    2082.709880
 J7                                  593.015514    1211.941809
 J8                                  107.839294    1552.387135
 J9                                 2160.145162     609.015925
 J10                                 885.930416     175.711794
 J11                                 726.436832     540.024507
 J12                                1638.203331    1785.008025
 J13                                 289.135218    2063.380551
 J14                                2528.718231     168.803856
 J15                                 858.994356    2289.230458
 J16                                1993.905313     171.295637
 J17                                2596.925138    1664.456224
 J18                                 827.216178    1726.607836
 J19                                1931.483642    2549.866214
 J20                                  85.521203    1304.394867
 J21                                1191.753461    2121.285654
 J22                                1424.250317    2396.388944
 J23                                2058.395208    1434.103110
 J24                                 464.949949    1576.445740
 J25                                2450.934736    2561.597153
 J26                                 687.030314    2494.782548
 J27                                 289.285527    1836.777474
 J28                                 218.614700     376.939319
 J29                                1826.595195     793.670007
 J30                                1316.643597     989.737538
 J31                                2204.600098      31.252415
 J32                                2571.900946    2068.816935
 J33                                  25.952734    2657.481469
 J34                                 282.148267     641.448778
 J35                                2262.648618    1763.277939
 J36                                 639.561124     914.437398
 J37                                1594.785827    1249.728278
 J38                                1423.811587     538.554996
 J39                                2189.948408    2454.177985
 J40                                2393.876274     856.444072
 J41                                1868.381505    1070.392561
 J42                                 563.094634    2030.404366
 J43                                1869.062442      12.140570
 J44                                2656.024847    2408.851735
 J45                                1254.066510     417.123569
 J46                                1003.596513    1284.981157
 J47                                 930.806999    1077.176675
 J48                                 559.862955     286.682442
 J49                                 665.425181    1541.174774
 J50                                1085.258167    2600.284834
 J51                                  63.728843     891.766667
 J52                                 782.745735     750.139354
 J53                                 286.402982     869.671908
 J54                                1591.666369    2179.986214
 J55                                1669.113687    2639.604366
 J56                                2454.556499    1383.847968
 J57                                2182.972147     873.337968
 J58                                2344.329535    2052.406473
 J59                                 734.364074      18.245966
 J60                                1442.696631    1479.429587
 J61                                2647.030642     584.366533
 J62                                1990.423606     491.250819
 J63                                1115.531834    1560.405746
 J64                                2631.735075    1065.827597
 J65                                 349.445498    2288.935973
 J66                                2461.212137    2289.830537
 J67                                1790.817033    2346.995240
 J68                                 172.867216     125.488249
 J69                                2027.257723    2292.553942
 J70                                1837.907566    1404.075327
 J71                                 369.697412       1.196270
 J72                                  67.903766    1859.966030
 J73                                 477.468617    2523.050315
 J74                                 295.632230    1210.558405
 J75                                  91.822455    2191.158120
 J76                                 798.776727    1311.522201
 J77                                 527.462269     711.943490
 J78                                1425.505345     741.392788
 J79                                1085.422795     304.761589
 J80                                1619.030395     895.343777
 J81                                1731.732402     163.356211
 J82                                 620.572669    1756.554172
 J83                                1747.139760    2050.407516
 J84                                1390.828180     190.693377
 J85                                2356.896862    1133.202540
 J86                                 964.236045     536.560277
 J87                                1888.906023    1754.222533
 R1                                 2411.212137    2239.830537
 R2                                  239.135218    2013.380551

[VERTICES]

[END]
