[TITLE]

[JUNCTIONS]
 J1                                   19.5196
 J2                                   20.5869
 J3                                   40.4609
 J4                                   36.7094
 J5                                   14.2605
 J6                                   20.7274
 J7                                   49.1058
 J8                                   37.1057
 J9                                    0.0000
 J10                                  20.2133
 J11                                  19.0421
 J12                                  34.2465
 J13                                  27.3045
 J14                                  17.3374
 J15                                  33.1022
 J16                                  28.5634
 J17                                  24.8180
 J18                                  34.0782
 J19                                  26.4666
 J20                                  11.4307
 J21                                  40.9795
 J22                                  17.8908
 J23                                  35.7546
 J24                                  12.7335
 J25                                  42.8465
 J26                                  12.3970
 J27                                  33.9646
 J28                                  15.2485
 J29                                  27.9253
 J30                                  33.1967
 J31                                  26.5846
 J32                                  27.7814
 J33                                  24.5066
 J34                                  27.4618
 J35                                  33.1803

[RESERVOIRS]
 R1                                  104.1054                                

[TANKS]

[PIPES]
 PS1                             R1                              J25                                  50.0000     800.0000     140.0000       0.0000       
 P1                              J1                              J2                                  763.8592     100.0000     102.3224       0.0000       
 P2                              J1                              J10                                 869.5726     100.0000     122.6592       0.0000       
 P3                              J1                              J16                                 841.2977     200.0000     106.6239       0.0000       
 P4                              J1                              J20                                1032.6321      80.0000     110.0900       0.0000       
 P5                              J1                              J32                                 943.6332      80.0000     134.7642       0.0000       
 P6                              J2                              J17                                 709.2109      80.0000     114.1584       0.0000       
 P7                              J2                              J29                                 528.4485      80.0000     122.7278       0.0000       
 P8                              J2                              J32                                 836.2432      80.0000     127.3705       0.0000       
 P9                              J3                              J8                                  522.6868      80.0000     109.0028       0.0000       
 P10                             J3                              J12                                 798.3294      80.0000     103.8999       0.0000       
 P11                             J3                              J18                                 688.6121      80.0000     138.9762       0.0000       
 P12                             J4                              J10                                1270.2669      80.0000     101.2193       0.0000       
 P13                             J4                              J16                                 591.5656      80.0000     131.2955       0.0000       
 P14                             J5                              J26                                 536.9545     100.0000     121.4293       0.0000       
 P15                             J6                              J13                                 629.6665      80.0000     106.4215       0.0000       
 P16                             J6                              J14                                 435.9163     250.0000     109.9207       0.0000       
 P17                             J6                              J15                                 760.2357      80.0000     122.8046       0.0000       
 P18                             J6                              J26                                 440.8609     200.0000     121.8832       0.0000       
 P19                             J7                              J25                                 523.7700     450.0000     136.3252       0.0000       
 P20                             J8                              J12                                 977.5086      80.0000     124.9525       0.0000       
 P21                             J8                              J18                                 475.6355      80.0000     115.5060       0.0000       
 P22                             J8                              J21                                 501.1386     100.0000     126.5965       0.0000       
 P23                             J8                              J30                                 744.7780      80.0000     107.3634       0.0000       
 P24                             J9                              J15                                 589.0480      80.0000     118.8273       0.0000       
 P25                             J9                              J20                                 804.3836      80.0000     111.7772       0.0000       
 P26                             J10                             J17                                 557.9846      80.0000     123.9832       0.0000       
 P27                             J10                             J19                                 479.0039      80.0000     114.8087       0.0000       
 P28                             J11                             J22                                 745.8669     150.0000     103.9944       0.0000       
 P29                             J11                             J31                                 533.9090     250.0000     116.6323       0.0000       
 P30                             J11                             J35                                 484.5340     250.0000     128.5777       0.0000       
 P31                             J12                             J31                                 505.9445     100.0000     136.8803       0.0000       
 P32                             J13                             J15                                 572.6419      80.0000     127.2871       0.0000       
 P33                             J13                             J33                                 774.6792     100.0000     132.1763       0.0000       
 P34                             J14                             J22                                 533.3166     250.0000     116.6375       0.0000       
 P35                             J15                             J26                                 659.4634      80.0000     113.4529       0.0000       
 P36                             J16                             J33                                 604.3632     200.0000     133.5839       0.0000       
 P37                             J17                             J29                                 612.2257      80.0000     123.7115       0.0000       
 P38                             J18                             J30                                 677.6731      80.0000     110.2834       0.0000       
 P39                             J19                             J30                                 504.6037      80.0000     109.5835       0.0000       
 P40                             J20                             J32                                 533.9447      80.0000     134.0496       0.0000       
 P41                             J21                             J30                                 745.8585     100.0000     127.6352       0.0000       
 P42                             J21                             J31                                 812.1258     200.0000     139.5813       0.0000       
 P43                             J22                             J33                                 506.6078     250.0000     105.9057       0.0000       
 P44                             J22                             J35                                 645.6495     350.0000     132.9441       0.0000       
 P45                             J23                             J25                                 472.3669      80.0000     121.0945       0.0000       
 P46                             J23                             J27                                 467.2696      80.0000     121.0373       0.0000       
 P47                             J23                             J28                                 710.0628      80.0000     104.6846       0.0000       
 P48                             J24                             J26                                 613.2304     125.0000     128.3073       0.0000       
 P49                             J25                             J34                                 481.6458     100.0000     137.8579       0.0000       
 P50                             J25                             J35                                 589.5399     400.0000     125.4560       0.0000       
 P51                             J28                             J34                                 514.6926      80.0000     134.8249       0.0000       

[PUMPS]

[VALVES]

[DEMANDS]
 J1                                    1.724351                                
 J2                                    4.020936                                
 J3                                    3.085212                                
 J4                                    3.327341                                
 J5                                    5.703477                                
 J6                                   11.576454                                
 J7                                    4.765677                                
 J8                                    3.748200                                
 J9                                    2.693419                                
 J10                                   6.105868                                
 J11                                   4.436200                                
 J12                                   3.995785                                
 J13                                   8.333852                                
 J14                                   3.514840                                
 J15                                   1.759235                                
 J16                                   1.620667                                
 J17                                   1.714788                                
 J18                                   3.018280                                
 J19                                   4.908099                                
 J20                                   4.584539                                
 J21                                   6.212407                                
 J22                                   4.783507                                
 J23                                   1.833807                                
 J24                                  11.868258                                
 J25                                   1.899897                                
 J26                                   3.557174                                
 J27                                   2.213184                                
 J28                                   4.034977                                
 J29                                   2.998761                                
 J30                                   2.707109                                
 J31                                   8.280220                                
 J32                                   2.065962                                
 J33                                   3.942792                                
 J34                                   3.440080                                
 J35                                   4.303103                                

[EMITTERS]

[STATUS]

[PATTERNS]

[CURVES]

[CONTROLS]

[RULES]

[QUALITY]

[SOURCES]

[MIXING]

[REACTIONS]
 ORDER  BULK            1.00
 ORDER  WALL            1
 ORDER  TANK            1.00
 GLOBAL BULK            0.000000
 GLOBAL WALL            0.000000

[ENERGY]
 GLOBAL EFFIC        75.0000
 DEMAND CHARGE       0.0000

[TIMES]
 DURATION            0:00:00
 HYDRAULIC TIMESTEP  1:00:00
 QUALITY TIMESTEP    0:06:00
 REPORT TIMESTEP     1:00:00
 REPORT START        0:00:00
 PATTERN TIMESTEP    1:00:00
 PATTERN START       0:00:00
 RULE TIMESTEP       0:06:00
 START CLOCKTIME     0:00:00
 STATISTIC           NONE

[OPTIONS]
 UNITS               LPS
 PRESSURE            METERS
 HEADLOSS            H-W
 UNBALANCED          STOP
 QUALITY             NONE
 DEMAND MULTIPLIER   1.0000
 EMITTER EXPONENT    0.5000
 VISCOSITY           1.000000
 DIFFUSIVITY         1.000000
 SPECIFIC GRAVITY    1.000000
 TRIALS              500
 ACCURACY            0.00000001
 TOLERANCE           0.01000000
 CHECKFREQ           2
 MAXCHECK            10
 DAMPLIMIT           0.00000000

[REPORT]
 PAGESIZE            0
 STATUS              NO
 SUMMARY             YES
 ENERGY              NO
 MESSAGES            YES
 NODES               NONE
 LINKS               NONE
 Elevation           NO
 Demand              PRECISION 2
 Head                PRECISION 2
 Pressure            PRECISION 2
 Quality             PRECISION 2
 Length              NO
 Diameter            NO
 Flow                PRECISION 2
 Velocity            PRECISION 2
 Headloss            PRECISION 2
 Quality             NO
 State               NO
 Setting             NO
 Reaction            NO

[COORDINATES]
 J1                                  792.572254     935.580873
 J2                                  287.465545     489.350826
 J3                                 3098.144310     485.543328
 J4                                 1633.080116    1347.756599
 J5                                 1539.198127    3141.313275
 J6                                 1297.764934    2543.877895
 J7                                 3051.872599    2410.788500
 J8                                 2629.827150     499.934317
 J9                                  133.044734    2270.036913
 J10                                1280.617839     279.590919
 J11                                2396.489510    1816.027774
 J12                                3054.060947    1215.832630
 J13                                 861.753018    2191.036611
 J14                                1700.186150    2593.598111
 J15                                 581.766115    2556.120802
 J16                                1192.523738    1549.041922
 J17                                 790.419837     179.935145
 J18                                2694.970133      74.599996
 J19                                1669.903239      62.671305
 J20                                 180.944894    1617.084016
 J21                                2307.964441     769.855147
 J22                                1934.006131    2231.039970
 J23                                2504.211816    3022.102778
 J24                                 598.085255    3172.812515
 J25                                2765.173632    2723.143334
 J26                                1098.114046    2908.774716
 J27                                2110.530326    3115.097504
 J28                                3099.203990    3233.399670
 J29                                 312.638893      65.701658
 J30                                2087.004035     102.325703
 J31                                2611.391611    1393.641569
 J32                                   1.430849    1222.293442
 J33                                1543.037453    1976.517868
 J34                                3181.592813    2821.726211
 J35                                2481.158705    2241.950267
 R1                                 2715.173632    2673.143334

[VERTICES]

[END]
