[TITLE]

[JUNCTIONS]
 J1                                    4.4972
 J2                                    2.3874
 J3                                    0.7283
 J4                                    8.4621
 J5                                    5.0218
 J6                                    5.0514
 J7                                    5.3056
 J8                                    6.6494
 J9                                    4.1565
 J10                                   1.1934
 J11                                   5.6879
 J12                                   4.6181
 J13                                   5.1202
 J14                                   4.8206
 J15                                   7.4512
 J16                                   5.5601
 J17                                   6.0013
 J18                                   7.1289
 J19                                   0.6849
 J20                                   2.8396
 J21                                   6.6848
 J22                                   4.6613
 J23                                   4.7480
 J24                                   3.8379
 J25                                   2.6759
 J26                                   5.9876
 J27                                   2.4318
 J28                                   5.1817
 J29                                   4.3624
 J30                                   6.4862
 J31                                   4.9088
 J32                                   6.7852
 J33                                   4.1101
 J34                                   4.7742
 J35                                   5.8872
 J36                                   4.0436
 J37                                   5.9308
 J38                                   6.0575
 J39                                   4.2867
 J40                                   2.4029
 J41                                   3.1106
 J42                                   3.4743
 J43                                   4.1444
 J44                                   5.1622
 J45                                   1.4540
 J46                                   3.4543
 J47                                   4.0750
 J48                                   3.6790
 J49                                   7.7515
 J50                                   6.2450
 J51                                   3.6295
 J52                                   5.5324
 J53                                   6.8076
 J54                                   5.0823
 J55                                   4.2420
 J56                                   4.1513
 J57                                   7.9472
 J58                                   5.4970
 J59                                   4.5709
 J60                                   8.9794
 J61                                   7.3959
 J62                                   5.0149
 J63                                   3.3085
 J64                                   3.5507
 J65                                   3.7034
 J66                                   5.4134
 J67                                   4.7763
 J68                                   4.8030
 J69                                   5.7203
 J70                                   6.2328
 J71                                   7.0687
 J72                                   6.2417
 J73                                   6.3109
 J74                                   1.1936
 J75                                   5.2590
 J76                                   7.2415
 J77                                   4.5088
 J78                                   3.6737
 J79                                   6.5472
 J80                                   0.0000
 J81                                   8.2381
 J82                                   7.7542
 J83                                   7.9138
 J84                                   6.5454
 J85                                   5.7141
 J86                                   6.4894
 J87                                   4.3496
 J88                                   6.6385
 J89                                   6.2249
 J90                                   5.3347
 J91                                   6.2271
 J92                                   7.4693
 J93                                   6.7938
 J94                                   6.7461
 J95                                   4.5181
 J96                                   8.1764
 J97                                   3.2486
 J98                                   4.4230
 J99                                   4.9766
 J100                                  6.0427
 J101                                  6.8549
 J102                                  5.2296

[RESERVOIRS]
 R1                                   58.9593                                
 R2                                   58.4420                                

[TANKS]

[PIPES]
 PS1                             R1                              J60                                  50.0000     800.0000     140.0000       0.0000       
 PS2                             R2                              J4                                   50.0000     800.0000     140.0000       0.0000       
 P1                              J1                              J11                                 486.5535      80.0000     137.1359       0.0000       
 P2                              J1                              J42                                 217.9504      80.0000     125.7628       0.0000       
 P3                              J2                              J12                                 523.4280      80.0000     134.0684       0.0000       
 P4                              J2                              J20                                 478.4745      80.0000     119.1916       0.0000       
 P5                              J2                              J27                                 405.5068      80.0000     101.1061       0.0000       
 P6                              J2                              J45                                 361.0528      80.0000     100.7778       0.0000       
 P7                              J2                              J67                                 548.4676      80.0000     135.7388       0.0000       
 P8                              J3                              J45                                 428.1844      80.0000     118.2321       0.0000       
 P9                              J3                              J74                                 273.1664      80.0000     120.1680       0.0000       
 P10                             J3                              J80                                 257.1054      80.0000     137.1503       0.0000       
 P11                             J4                              J57                                 269.5235     300.0000     134.0131       0.0000       
 P12                             J4                              J60                                 317.7297     300.0000     127.5869       0.0000       
 P13                             J4                              J83                                 287.7026     100.0000     101.1324       0.0000       
 P14                             J4                              J96                                 343.9580     125.0000     103.9181       0.0000       
 P15                             J5                              J22                                 252.2476      80.0000     114.8916       0.0000       
 P16                             J5                              J29                                 276.3120      80.0000     114.1708       0.0000       
 P17                             J5                              J61                                 374.8579      80.0000     129.6051       0.0000       
 P18                             J5                              J63                                 303.6592      80.0000     120.8781       0.0000       
 P19                             J6                              J14                                 304.5931      80.0000     129.3337       0.0000       
 P20                             J6                              J64                                 377.1821      80.0000     101.7704       0.0000       
 P21                             J6                              J69                                 326.1813      80.0000     137.8611       0.0000       
 P22                             J7                              J41                                 255.6314      80.0000     112.5297       0.0000       
 P23                             J7                              J56                                 266.5578      80.0000     120.6333       0.0000       
 P24                             J7                              J77                                 263.6291     100.0000     130.1121       0.0000       
 P25                             J7                              J89                                 235.6724     125.0000     126.6265       0.0000       
 P26                             J8                              J21                                 299.0595      80.0000     139.2616       0.0000       
 P27                             J8                              J23                                 358.4429      80.0000     102.5920       0.0000       
 P28                             J8                              J31                                 373.8928      80.0000     103.1371       0.0000       
 P29                             J8                              J86                                 364.8841     150.0000     114.1249       0.0000       
 P30                             J8                              J101                                297.7162     150.0000     124.6874       0.0000       
 P31                             J9                              J64                                 420.6509      80.0000     125.4878       0.0000       
 P32                             J9                              J69                                 352.4224      80.0000     128.1812       0.0000       
 P33                             J10                             J40                                 391.6685      80.0000     138.0830       0.0000       
 P34                             J10                             J45                                 323.4540      80.0000     106.9333       0.0000       
 P35                             J10                             J80                                 377.3804      80.0000     139.0991       0.0000       
 P36                             J11                             J24                                 511.8782     125.0000     109.1356       0.0000       
 P37                             J11                             J49                                 374.8093      80.0000     122.4923       0.0000       
 P38                             J11                             J63                                 631.4333     200.0000     121.6168       0.0000       
 P39                             J11                             J83                                 289.3241     250.0000     124.2422       0.0000       
 P40                             J11                             J90                                 525.4280      80.0000     104.2456       0.0000       
 P41                             J12                             J67                                 242.9589      80.0000     132.0613       0.0000       
 P42                             J12                             J85                                 251.0749      80.0000     119.0894       0.0000       
 P43                             J13                             J14                                 449.2496     100.0000     132.6015       0.0000       
 P44                             J13                             J62                                 292.2580     100.0000     104.5455       0.0000       
 P45                             J13                             J91                                 351.6602      80.0000     104.1198       0.0000       
 P46                             J13                             J100                                279.9600      80.0000     114.7489       0.0000       
 P47                             J14                             J47                                 331.7447      80.0000     114.0955       0.0000       
 P48                             J14                             J50                                 297.6189      80.0000     113.4988       0.0000       
 P49                             J14                             J64                                 405.0144      80.0000     108.3305       0.0000       
 P50                             J14                             J100                                354.3296      80.0000     133.0543       0.0000       
 P51                             J15                             J18                                 291.6685     125.0000     118.0437       0.0000       
 P52                             J15                             J32                                 239.4095     250.0000     137.1285       0.0000       
 P53                             J15                             J57                                 353.5929     300.0000     138.2568       0.0000       
 P54                             J15                             J90                                 556.9746      80.0000     116.8789       0.0000       
 P55                             J16                             J32                                 329.1169     150.0000     130.5435       0.0000       
 P56                             J16                             J36                                 357.7664      80.0000     133.3847       0.0000       
 P57                             J16                             J37                                 294.3161     125.0000     102.6981       0.0000       
 P58                             J16                             J90                                 336.3086      80.0000     114.8072       0.0000       
 P59                             J17                             J53                                 276.2829      80.0000     111.5112       0.0000       
 P60                             J17                             J58                                 367.5371     125.0000     102.0236       0.0000       
 P61                             J17                             J94                                 294.2769     125.0000     110.9186       0.0000       
 P62                             J18                             J70                                 279.2780     125.0000     110.3746       0.0000       
 P63                             J18                             J71                                 242.4977      80.0000     139.7522       0.0000       
 P64                             J19                             J41                                 346.1976      80.0000     110.9708       0.0000       
 P65                             J19                             J56                                 378.5515      80.0000     115.8736       0.0000       
 P66                             J19                             J74                                 636.2021      80.0000     111.2461       0.0000       
 P67                             J20                             J25                                 389.2791      80.0000     133.7949       0.0000       
 P68                             J20                             J67                                 401.6440     100.0000     108.1276       0.0000       
 P69                             J21                             J91                                 295.4987      80.0000     124.6874       0.0000       
 P70                             J21                             J100                                226.1911      80.0000     120.2813       0.0000       
 P71                             J22                             J65                                 423.7217      80.0000     131.3665       0.0000       
 P72                             J23                             J31                                 275.1844      80.0000     109.1518       0.0000       
 P73                             J23                             J89                                 472.4801      80.0000     131.7480       0.0000       
 P74                             J23                             J97                                 259.9615      80.0000     139.9585       0.0000       
 P75                             J23                             J101                                435.0240      80.0000     110.8664       0.0000       
 P76                             J24                             J36                                 413.9927     125.0000     104.2540       0.0000       
 P77                             J24                             J63                                 468.8971      80.0000     126.4425       0.0000       
 P78                             J24                             J90                                 300.3180      80.0000     131.3117       0.0000       
 P79                             J25                             J51                                 441.4389      80.0000     126.1626       0.0000       
 P80                             J26                             J58                                 257.7364     100.0000     128.8664       0.0000       
 P81                             J26                             J92                                 289.6809     100.0000     139.9221       0.0000       
 P82                             J27                             J45                                 401.3606      80.0000     130.6681       0.0000       
 P83                             J27                             J46                                 222.5145      80.0000     131.1211       0.0000       
 P84                             J28                             J34                                 243.6034      80.0000     132.8133       0.0000       
 P85                             J28                             J62                                 305.3958     125.0000     118.8042       0.0000       
 P86                             J28                             J70                                 432.1367     125.0000     136.7839       0.0000       
 P87                             J28                             J72                                 470.2802      80.0000     123.9279       0.0000       
 P88                             J29                             J44                                 334.5138     150.0000     134.2415       0.0000       
 P89                             J29                             J63                                 253.3522     150.0000     131.8603       0.0000       
 P90                             J30                             J37                                 415.6182      80.0000     139.1608       0.0000       
 P91                             J30                             J72                                 276.1950      80.0000     133.6954       0.0000       
 P92                             J30                             J86                                 346.5847     200.0000     134.9684       0.0000       
 P93                             J30                             J93                                 439.6293     200.0000     105.9590       0.0000       
 P94                             J31                             J52                                 293.9171      80.0000     100.0380       0.0000       
 P95                             J31                             J97                                 237.3030      80.0000     116.5656       0.0000       
 P96                             J32                             J93                                 268.1572     200.0000     102.3282       0.0000       
 P97                             J33                             J47                                 268.2162      80.0000     120.6404       0.0000       
 P98                             J33                             J62                                 434.2481      80.0000     122.1844       0.0000       
 P99                             J33                             J78                                 382.5524      80.0000     120.0155       0.0000       
 P100                            J33                             J95                                 268.0118      80.0000     115.5478       0.0000       
 P101                            J34                             J54                                 306.5544      80.0000     107.2499       0.0000       
 P102                            J34                             J68                                 249.1987      80.0000     137.3929       0.0000       
 P103                            J35                             J54                                 252.7977      80.0000     119.1304       0.0000       
 P104                            J35                             J79                                 335.1796      80.0000     121.6077       0.0000       
 P105                            J36                             J43                                 230.5312     125.0000     128.3395       0.0000       
 P106                            J36                             J55                                 419.7534      80.0000     125.4365       0.0000       
 P107                            J37                             J43                                 618.2593      80.0000     137.3466       0.0000       
 P108                            J37                             J66                                 411.2962     125.0000     111.6885       0.0000       
 P109                            J38                             J53                                 380.0407      80.0000     100.4219       0.0000       
 P110                            J38                             J70                                 305.4669      80.0000     117.6449       0.0000       
 P111                            J38                             J71                                 243.8452     100.0000     122.1709       0.0000       
 P112                            J38                             J75                                 271.0982     100.0000     114.7672       0.0000       
 P113                            J39                             J46                                 325.0524     100.0000     128.6319       0.0000       
 P114                            J39                             J59                                 273.3484      80.0000     118.9705       0.0000       
 P115                            J39                             J87                                 257.9843     125.0000     119.0998       0.0000       
 P116                            J40                             J45                                 270.5040      80.0000     115.8661       0.0000       
 P117                            J40                             J51                                 273.6715      80.0000     131.1635       0.0000       
 P118                            J41                             J77                                 274.0855      80.0000     127.7983       0.0000       
 P119                            J42                             J63                                 476.5979      80.0000     127.3956       0.0000       
 P120                            J42                             J65                                 265.0857      80.0000     106.3049       0.0000       
 P121                            J43                             J59                                 424.2980      80.0000     111.4080       0.0000       
 P122                            J43                             J66                                 534.9021      80.0000     132.7699       0.0000       
 P123                            J43                             J87                                 252.6339     125.0000     115.6633       0.0000       
 P124                            J44                             J55                                 228.1807      80.0000     122.6434       0.0000       
 P125                            J44                             J61                                 611.7313      80.0000     108.8561       0.0000       
 P126                            J44                             J84                                 361.4567     125.0000     109.3577       0.0000       
 P127                            J44                             J99                                 246.2152      80.0000     118.4445       0.0000       
 P128                            J46                             J48                                 291.1382      80.0000     121.3375       0.0000       
 P129                            J47                             J78                                 214.5053      80.0000     119.0695       0.0000       
 P130                            J48                             J97                                 410.3950      80.0000     109.8277       0.0000       
 P131                            J49                             J83                                 241.8495      80.0000     105.6547       0.0000       
 P132                            J50                             J88                                 362.7637      80.0000     129.0253       0.0000       
 P133                            J50                             J100                                288.9632      80.0000     114.7134       0.0000       
 P134                            J52                             J59                                 367.8167      80.0000     137.2963       0.0000       
 P135                            J52                             J66                                 324.3910     125.0000     137.3425       0.0000       
 P136                            J52                             J86                                 318.0976      80.0000     116.0792       0.0000       
 P137                            J53                             J71                                 291.8824      80.0000     136.9810       0.0000       
 P138                            J54                             J75                                 385.7487     100.0000     105.9473       0.0000       
 P139                            J55                             J87                                 248.9061      80.0000     137.1232       0.0000       
 P140                            J55                             J99                                 257.5890      80.0000     136.5528       0.0000       
 P141                            J56                             J89                                 308.3653      80.0000     123.6303       0.0000       
 P142                            J57                             J96                                 305.3499      80.0000     107.5359       0.0000       
 P143                            J58                             J75                                 312.0962      80.0000     137.8046       0.0000       
 P144                            J59                             J66                                 325.8821      80.0000     107.0836       0.0000       
 P145                            J60                             J81                                 280.2594     150.0000     128.8755       0.0000       
 P146                            J60                             J83                                 400.2075     250.0000     106.1031       0.0000       
 P147                            J61                             J76                                 377.5358      80.0000     110.3128       0.0000       
 P148                            J62                             J91                                 397.2919      80.0000     106.6717       0.0000       
 P149                            J65                             J98                                 325.6656      80.0000     104.1215       0.0000       
 P150                            J66                             J86                                 416.7026      80.0000     134.3892       0.0000       
 P151                            J67                             J85                                 267.3675     100.0000     130.6118       0.0000       
 P152                            J68                             J95                                 282.1311      80.0000     132.2995       0.0000       
 P153                            J69                             J77                                 597.8801      80.0000     109.0469       0.0000       
 P154                            J69                             J88                                 387.8777      80.0000     101.9603       0.0000       
 P155                            J69                             J102                                410.9390      80.0000     124.0774       0.0000       
 P156                            J70                             J73                                 249.0846      80.0000     134.7923       0.0000       
 P157                            J71                             J96                                 370.3450     125.0000     117.7665       0.0000       
 P158                            J72                             J73                                 311.0631     100.0000     105.7513       0.0000       
 P159                            J72                             J91                                 295.6222     100.0000     108.6321       0.0000       
 P160                            J73                             J93                                 282.0214     125.0000     135.1023       0.0000       
 P161                            J74                             J80                                 286.2200      80.0000     107.5862       0.0000       
 P162                            J74                             J97                                 255.4542      80.0000     104.6709       0.0000       
 P163                            J76                             J84                                 244.8712      80.0000     134.6323       0.0000       
 P164                            J77                             J102                                433.2660      80.0000     107.6917       0.0000       
 P165                            J79                             J82                                 239.6041      80.0000     125.9020       0.0000       
 P166                            J81                             J94                                 313.4853     150.0000     111.8383       0.0000       
 P167                            J82                             J92                                 282.0549     100.0000     101.9257       0.0000       
 P168                            J84                             J85                                 249.6666     125.0000     114.5817       0.0000       
 P169                            J86                             J91                                 433.4957      80.0000     125.1579       0.0000       
 P170                            J87                             J99                                 227.7322      80.0000     135.2237       0.0000       
 P171                            J88                             J89                                 251.3647      80.0000     108.7998       0.0000       
 P172                            J88                             J101                                307.9943      80.0000     118.3281       0.0000       
 P173                            J89                             J101                                300.9420     125.0000     123.5237       0.0000       
 P174                            J91                             J100                                328.7918      80.0000     132.9713       0.0000       

[PUMPS]

[VALVES]

[DEMANDS]
 J1                                    0.876027                                
 J2                                    0.801671                                
 J3                                    0.590811                                
 J4                                    2.341692                                
 J5                                    1.916474                                
 J6                                    0.386514                                
 J7                                    0.440739                                
 J8                                    1.672725                                
 J9                                    0.299618                                
 J10                                   0.942753                                
 J11                                   0.500508                                
 J12                                   1.166875                                
 J13                                   0.772178                                
 J14                                   0.944238                                
 J15                                   1.415241                                
 J16                                   0.628630                                
 J17                                   1.864505                                
 J18                                   0.184482                                
 J19                                   1.391324                                
 J20                                   3.832061                                
 J21                                   1.337603                                
 J22                                   0.297820                                
 J23                                   0.645410                                
 J24                                   0.852719                                
 J25                                   2.186145                                
 J26                                   0.416874                                
 J27                                   1.297644                                
 J28                                   0.839116                                
 J29                                   0.285529                                
 J30                                   0.708760                                
 J31                                   0.067773                                
 J32                                   0.278709                                
 J33                                   1.468537                                
 J34                                   0.385726                                
 J35                                   2.214911                                
 J36                                   0.502574                                
 J37                                   2.339687                                
 J38                                   0.779923                                
 J39                                   1.406015                                
 J40                                   0.176254                                
 J41                                   1.299760                                
 J42                                   2.727180                                
 J43                                   0.255159                                
 J44                                   0.314576                                
 J45                                   0.201741                                
 J46                                   1.696263                                
 J47                                   0.536926                                
 J48                                   2.177550                                
 J49                                   0.212293                                
 J50                                   0.380238                                
 J51                                   0.303870                                
 J52                                   6.065763                                
 J53                                   1.183911                                
 J54                                   4.344459                                
 J55                                   0.878499                                
 J56                                   0.674629                                
 J57                                   0.311196                                
 J58                                   0.980932                                
 J59                                   0.438764                                
 J60                                   1.945159                                
 J61                                   1.019975                                
 J62                                   0.249924                                
 J63                                   2.960499                                
 J64                                   3.536102                                
 J65                                   0.563492                                
 J66                                   0.092298                                
 J67                                   1.081208                                
 J68                                   0.312777                                
 J69                                   0.845838                                
 J70                                   1.286020                                
 J71                                   0.737642                                
 J72                                   0.707626                                
 J73                                   0.519473                                
 J74                                   0.512400                                
 J75                                   0.412291                                
 J76                                   0.344472                                
 J77                                   6.467068                                
 J78                                   0.877180                                
 J79                                   4.612314                                
 J80                                   0.322195                                
 J81                                   0.098912                                
 J82                                   1.110381                                
 J83                                   0.614380                                
 J84                                   2.652290                                
 J85                                   0.252378                                
 J86                                   0.901791                                
 J87                                   0.340288                                
 J88                                   0.251975                                
 J89                                   0.699335                                
 J90                                   2.291489                                
 J91                                   1.371057                                
 J92                                   0.977595                                
 J93                                   0.499493                                
 J94                                   1.445819                                
 J95                                   0.455088                                
 J96                                   0.959300                                
 J97                                   2.577553                                
 J98                                   0.673657                                
 J99                                   1.555487                                
 J100                                  3.868053                                
 J101                                  2.340915                                
 J102                                  1.294290                                

[EMITTERS]

[STATUS]

[PATTERNS]

[CURVES]

[CONTROLS]

[RULES]

[QUALITY]

[SOURCES]

[MIXING]

[REACTIONS]
 ORDER  BULK            1.00
 ORDER  WALL            1
 ORDER  TANK            1.00
 GLOBAL BULK            0.000000
 GLOBAL WALL            0.000000

[ENERGY]
 GLOBAL EFFIC        75.0000
 DEMAND CHARGE       0.0000

[TIMES]
 DURATION            0:00:00
 HYDRAULIC TIMESTEP  1:00:00
 QUALITY TIMESTEP    0:06:00
 REPORT TIMESTEP     1:00:00
 REPORT START        0:00:00
 PATTERN TIMESTEP    1:00:00
 PATTERN START       0:00:00
 RULE TIMESTEP       0:06:00
 START CLOCKTIME     0:00:00
 STATISTIC           NONE

[OPTIONS]
 UNITS               LPS
 PRESSURE            METERS
 HEADLOSS            H-W
 UNBALANCED          STOP
 QUALITY             NONE
 DEMAND MULTIPLIER   1.0000
 EMITTER EXPONENT    0.5000
 VISCOSITY           1.000000
 DIFFUSIVITY         1.000000
 SPECIFIC GRAVITY    1.000000
 TRIALS              500
 ACCURACY            0.00000001
 TOLERANCE           0.01000000
 CHECKFREQ           2
 MAXCHECK            10
 DAMPLIMIT           0.00000000

[REPORT]
 PAGESIZE            0
 STATUS              NO
 SUMMARY             YES
 ENERGY              NO
 MESSAGES            YES
 NODES               NONE
 LINKS               NONE
 Elevation           NO
 Demand              PRECISION 2
 Head                PRECISION 2
 Pressure            PRECISION 2
 Quality             PRECISION 2
 Length              NO
 Diameter            NO
 Flow                PRECISION 2
 Velocity            PRECISION 2
 Headloss            PRECISION 2
 Quality             NO
 State               NO
 Setting             NO
 Reaction            NO

[COORDINATES]
 J1                                 2371.468422     259.800944
 J2                                 2429.446253    2336.629774
 J3                                 1889.391652    2533.730222
 J4                                 1548.427987     381.410550
 J5                                 2714.040394     915.962463
 J6                                  355.693004    2262.132555
 J7                                  896.101022    2667.937146
 J8                                 1111.493230    2065.078840
 J9                                  108.664766    2513.586057
 J10                                2109.503323    2835.373702
 J11                                2010.438201     452.527091
 J12                                2450.756281    1889.446479
 J13                                 572.947543    1676.118191
 J14                                 411.860243    2009.165341
 J15                                1278.498230     823.348510
 J16                                1607.600942    1078.980994
 J17                                 797.594478     185.908042
 J18                                1040.315690     817.447988
 J19                                1303.959751    2917.275300
 J20                                2822.688473    2226.802639
 J21                                 919.734757    1888.709697
 J22                                2802.825044     725.313723
 J23                                1287.756160    2354.444612
 J24                                2022.550914     867.155183
 J25                                2882.583321    2540.638734
 J26                                 498.956148     143.495652
 J27                                2109.094777    2212.091456
 J28                                 569.703398    1159.269099
 J29                                2519.942853    1031.878699
 J30                                1127.459997    1478.050315
 J31                                1437.983090    2147.851616
 J32                                1346.486370    1022.503764
 J33                                 220.357920    1531.704329
 J34                                 354.276542    1078.678058
 J35                                  84.910862     675.559256
 J36                                1903.740573    1184.381421
 J37                                1442.134597    1288.063093
 J38                                 776.376239     610.626344
 J39                                2039.175535    1740.072164
 J40                                2424.089295    2705.066598
 J41                                1033.555100    2850.950826
 J42                                2544.643642     373.133095
 J43                                1937.733941    1384.666168
 J44                                2454.410428    1319.204426
 J45                                2251.188205    2566.917655
 J46                                2040.902582    2015.137027
 J47                                 299.401497    1759.670146
 J48                                1781.243461    2059.980902
 J49                                1952.897652     155.232263
 J50                                 651.289204    2102.886113
 J51                                2604.960466    2828.656589
 J52                                1472.850833    1885.745012
 J53                                 967.148962     340.379603
 J54                                 238.345056     836.261290
 J55                                2246.619666    1317.854370
 J56                                1129.588564    2610.656090
 J57                                1455.609828     592.005415
 J58                                 491.041809     354.793421
 J59                                1784.566803    1738.981618
 J60                                1518.290069     110.576606
 J61                                2914.430127    1148.743915
 J62                                 562.116981    1412.857990
 J63                                2464.782445     809.395898
 J64                                  84.507651    2128.092030
 J65                                2778.015265     359.577924
 J66                                1549.310936    1620.278363
 J67                                2667.055187    1910.585430
 J68                                 132.880013    1155.440683
 J69                                 395.993781    2566.143680
 J70                                 814.773669     898.479920
 J71                                 993.298171     601.743359
 J72                                 912.766731    1381.089400
 J73                                 877.955277    1117.807632
 J74                                1652.374668    2538.605929
 J75                                 526.159308     626.375614
 J76                                2881.335551    1452.884741
 J77                                 789.843562    2888.651371
 J78                                 104.535184    1820.518811
 J79                                 158.176859     384.060656
 J80                                1789.849721    2734.136419
 J81                                1293.246551      55.888034
 J82                                 125.752764     176.231486
 J83                                1802.599316     294.298194
 J84                                2681.954917    1512.709039
 J85                                2576.034596    1702.318802
 J86                                1219.885852    1786.102533
 J87                                2117.625897    1509.313144
 J88                                 707.753488    2410.877678
 J89                                 924.708032    2460.576958
 J90                                1778.522810     840.487982
 J91                                 869.614474    1627.057062
 J92                                 305.701383       4.409332
 J93                                1140.534342    1125.990953
 J94                                 996.593184      59.800273
 J95                                  73.027545    1375.785212
 J96                                1259.696406     400.684749
 J97                                1526.984323    2339.786102
 J98                                2794.060097      61.075094
 J99                                2330.808076    1507.938766
 J100                                715.430319    1865.695957
 J101                                905.497835    2199.013475
 J102                                379.739441    2911.949873
 R1                                 1468.290069      60.576606
 R2                                 1498.427987     331.410550

[VERTICES]

[END]
