[TITLE]

[JUNCTIONS]
 J1                                   10.7498
 J2                                   18.2128
 J3                                   39.9639
 J4                                   38.7479
 J5                                   17.9238
 J6                                   23.8609
 J7                                   37.3240
 J8                                    0.0000
 J9                                   32.9991
 J10                                  19.6875
 J11                                  37.8667
 J12                                  40.6640
 J13                                  21.1794
 J14                                   6.3208
 J15                                  38.5410
 J16                                  29.8340
 J17                                  17.7864
 J18                                  32.3940
 J19                                  23.5806
 J20                                  26.9394
 J21                                  32.6319
 J22                                  29.4041
 J23                                  38.2675
 J24                                  20.0952
 J25                                  38.8505
 J26                                  26.9270
 J27                                   6.5707
 J28                                  34.2127
 J29                                  24.6395
 J30                                  29.9200
 J31                                  15.2671
 J32                                  19.6532
 J33                                  15.3526
 J34                                  22.7217
 J35                                  36.9641
 J36                                  40.5306
 J37                                  17.9658
 J38                                   7.7687
 J39                                   5.9171
 J40                                  39.2578
 J41                                   8.9495
 J42                                  27.5622
 J43                                  35.4322
 J44                                  40.2637
 J45                                  12.5562

[RESERVOIRS]
 R1                                   98.5744                                

[TANKS]

[PIPES]
 PS1                             R1                              J12                                  50.0000     800.0000     140.0000       0.0000       
 P1                              J1                              J5                                  265.2140      80.0000     137.1542       0.0000       
 P2                              J1                              J17                                 456.3033      80.0000     119.7853       0.0000       
 P3                              J1                              J27                                 507.0429      80.0000     133.3779       0.0000       
 P4                              J1                              J32                                 376.3968      80.0000     111.3473       0.0000       
 P5                              J2                              J16                                 622.0071      80.0000     105.4758       0.0000       
 P6                              J2                              J31                                 264.7348      80.0000     134.3324       0.0000       
 P7                              J3                              J11                                 320.7139      80.0000     128.8207       0.0000       
 P8                              J3                              J34                                 349.3605      80.0000     111.5186       0.0000       
 P9                              J3                              J43                                 388.5791      80.0000     124.7782       0.0000       
 P10                             J4                              J29                                 411.3664      80.0000     130.0966       0.0000       
 P11                             J4                              J30                                 433.5857      80.0000     124.6028       0.0000       
 P12                             J4                              J32                                 446.6598     150.0000     104.1183       0.0000       
 P13                             J4                              J36                                 645.3981     150.0000     114.0207       0.0000       
 P14                             J4                              J40                                 359.4116      80.0000     131.5513       0.0000       
 P15                             J5                              J34                                 323.3118      80.0000     121.4344       0.0000       
 P16                             J6                              J19                                 433.8594      80.0000     114.5850       0.0000       
 P17                             J6                              J20                                 283.5550      80.0000     117.7245       0.0000       
 P18                             J6                              J26                                 343.3096      80.0000     106.2044       0.0000       
 P19                             J7                              J18                                 370.5773      80.0000     113.5208       0.0000       
 P20                             J7                              J44                                 303.7786      80.0000     136.3972       0.0000       
 P21                             J8                              J14                                 318.0156      80.0000     134.4928       0.0000       
 P22                             J8                              J39                                 305.5649      80.0000     128.6973       0.0000       
 P23                             J8                              J45                                 318.6053      80.0000     130.3445       0.0000       
 P24                             J9                              J30                                 302.7317     125.0000     111.5766       0.0000       
 P25                             J9                              J36                                 554.4853     125.0000     105.5437       0.0000       
 P26                             J10                             J17                                 300.1339     150.0000     112.5018       0.0000       
 P27                             J10                             J21                                 306.2781     200.0000     139.1048       0.0000       
 P28                             J10                             J29                                 293.2735      80.0000     138.3235       0.0000       
 P29                             J11                             J43                                 438.7609      80.0000     118.1195       0.0000       
 P30                             J12                             J15                                 413.2725     300.0000     121.8922       0.0000       
 P31                             J12                             J35                                 298.4901      80.0000     122.6196       0.0000       
 P32                             J12                             J44                                 408.8853      80.0000     104.5297       0.0000       
 P33                             J13                             J17                                 292.7269     125.0000     122.0001       0.0000       
 P34                             J13                             J43                                 363.1590     100.0000     132.0633       0.0000       
 P35                             J14                             J39                                 351.9751      80.0000     121.5106       0.0000       
 P36                             J14                             J41                                 276.1882     100.0000     131.3231       0.0000       
 P37                             J14                             J45                                 306.5809      80.0000     139.5698       0.0000       
 P38                             J15                             J18                                 319.2215     125.0000     120.6822       0.0000       
 P39                             J15                             J28                                 284.8243     300.0000     103.4720       0.0000       
 P40                             J16                             J45                                 287.2256      80.0000     115.8852       0.0000       
 P41                             J17                             J34                                 274.9769     100.0000     113.7655       0.0000       
 P42                             J18                             J20                                 410.0071     125.0000     104.8383       0.0000       
 P43                             J18                             J28                                 355.1868      80.0000     126.1283       0.0000       
 P44                             J19                             J22                                 350.1038      80.0000     138.2548       0.0000       
 P45                             J19                             J26                                 264.7946      80.0000     123.0442       0.0000       
 P46                             J19                             J30                                 654.4991      80.0000     121.7164       0.0000       
 P47                             J19                             J37                                 714.1018      80.0000     100.0899       0.0000       
 P48                             J20                             J26                                 342.3769     100.0000     109.0437       0.0000       
 P49                             J21                             J36                                 310.8447     200.0000     127.5511       0.0000       
 P50                             J22                             J33                                 360.1814      80.0000     108.8088       0.0000       
 P51                             J23                             J43                                 360.0827     100.0000     122.8085       0.0000       
 P52                             J24                             J27                                 444.8359      80.0000     138.6250       0.0000       
 P53                             J24                             J39                                 558.6433      80.0000     118.3384       0.0000       
 P54                             J25                             J35                                 427.3968      80.0000     126.7667       0.0000       
 P55                             J25                             J36                                 327.6906      80.0000     104.8133       0.0000       
 P56                             J27                             J32                                 335.5628     125.0000     123.6789       0.0000       
 P57                             J27                             J41                                 305.8200     100.0000     104.6492       0.0000       
 P58                             J28                             J36                                 349.2881     250.0000     139.4476       0.0000       
 P59                             J30                             J37                                 306.1338     100.0000     126.1530       0.0000       
 P60                             J30                             J40                                 368.4583      80.0000     107.8628       0.0000       
 P61                             J31                             J37                                 451.7670      80.0000     119.3942       0.0000       
 P62                             J31                             J38                                 284.3280      80.0000     109.1671       0.0000       
 P63                             J33                             J37                                 379.6224      80.0000     123.1887       0.0000       
 P64                             J33                             J38                                 379.3375      80.0000     101.7459       0.0000       
 P65                             J35                             J42                                 468.3418      80.0000     137.4549       0.0000       
 P66                             J37                             J38                                 490.9669      80.0000     116.6608       0.0000       

[PUMPS]

[VALVES]

[DEMANDS]
 J1                                    0.867130                                
 J2                                    1.564512                                
 J3                                    1.423627                                
 J4                                    1.263505                                
 J5                                    1.608750                                
 J6                                    1.193330                                
 J7                                    1.381760                                
 J8                                    2.573042                                
 J9                                    1.388449                                
 J10                                   1.129504                                
 J11                                   1.437644                                
 J12                                   1.010814                                
 J13                                   0.835970                                
 J14                                   1.235382                                
 J15                                   1.843212                                
 J16                                   1.129065                                
 J17                                   0.937743                                
 J18                                   0.950644                                
 J19                                   1.595302                                
 J20                                   2.254686                                
 J21                                   1.070654                                
 J22                                   0.842644                                
 J23                                   5.417915                                
 J24                                   2.815644                                
 J25                                   0.994026                                
 J26                                   1.450327                                
 J27                                   1.185743                                
 J28                                   1.522631                                
 J29                                   1.514324                                
 J30                                   2.323835                                
 J31                                   1.401083                                
 J32                                   2.378007                                
 J33                                   1.332325                                
 J34                                   3.124689                                
 J35                                   0.924514                                
 J36                                   2.157878                                
 J37                                   1.417708                                
 J38                                   1.148873                                
 J39                                   1.554295                                
 J40                                   0.986740                                
 J41                                   1.565020                                
 J42                                   1.912465                                
 J43                                   2.252164                                
 J44                                   3.402515                                
 J45                                   0.694192                                

[EMITTERS]

[STATUS]

[PATTERNS]

[CURVES]

[CONTROLS]

[RULES]

[QUALITY]

[SOURCES]

[MIXING]

[REACTIONS]
 ORDER  BULK            1.00
 ORDER  WALL            1
 ORDER  TANK            1.00
 GLOBAL BULK            0.000000
 GLOBAL WALL            0.000000

[ENERGY]
 GLOBAL EFFIC        75.0000
 DEMAND CHARGE       0.0000

[TIMES]
 DURATION            0:00:00
 HYDRAULIC TIMESTEP  1:00:00
 QUALITY TIMESTEP    0:06:00
 REPORT TIMESTEP     1:00:00
 REPORT START        0:00:00
 PATTERN TIMESTEP    1:00:00
 PATTERN START       0:00:00
 RULE TIMESTEP       0:06:00
 START CLOCKTIME     0:00:00
 STATISTIC           NONE

[OPTIONS]
 UNITS               LPS
 PRESSURE            METERS
 HEADLOSS            H-W
 UNBALANCED          STOP
 QUALITY             NONE
 DEMAND MULTIPLIER   1.0000
 EMITTER EXPONENT    0.5000
 VISCOSITY           1.000000
 DIFFUSIVITY         1.000000
 SPECIFIC GRAVITY    1.000000
 TRIALS              500
 ACCURACY            0.00000001
 TOLERANCE           0.01000000
 CHECKFREQ           2
 MAXCHECK            10
 DAMPLIMIT           0.00000000

[REPORT]
 PAGESIZE            0
 STATUS              NO
 SUMMARY             YES
 ENERGY              NO
 MESSAGES            YES
 NODES               NONE
 LINKS               NONE
 Elevation           NO
 Demand              PRECISION 2
 Head                PRECISION 2
 Pressure            PRECISION 2
 Quality             PRECISION 2
 Length              NO
 Diameter            NO
 Flow                PRECISION 2
 Velocity            PRECISION 2
 Headloss            PRECISION 2
 Quality             NO
 State               NO
 Setting             NO
 Reaction            NO

[COORDINATES]
 J1                                 1601.710222    1221.837436
 J2                                 1058.120992      19.782269
 J3                                 1977.486817    1733.261481
 J4                                 1075.491330    1050.289036
 J5                                 1851.430354    1232.780703
 J6                                  383.045631    1105.814280
 J7                                  174.792120    1925.663288
 J8                                 2094.428116     177.083972
 J9                                  719.961102    1032.203718
 J10                                1295.062894    1592.066139
 J11                                2128.287654    1986.837609
 J12                                 520.277718    2044.057979
 J13                                1456.575817    1851.019647
 J14                                1830.895962     311.210318
 J15                                 504.659656    1680.950111
 J16                                1573.089505     111.558095
 J17                                1560.178503    1620.719413
 J18                                 227.573720    1601.898662
 J19                                 206.945553     773.838881
 J20                                 174.038870    1273.156746
 J21                                1032.389361    1601.531622
 J22                                 152.301099     473.782663
 J23                                1639.529451    2210.921955
 J24                                2084.152619     898.434872
 J25                                 799.676185    1787.303043
 J26                                 103.583197     993.464082
 J27                                1725.432679     825.902669
 J28                                 508.040079    1416.383655
 J29                                1257.143962    1326.342310
 J30                                 803.371615     782.659998
 J31                                 901.463173     202.065925
 J32                                1450.011201     928.101016
 J33                                 445.153495     339.174457
 J34                                1768.861931    1496.607830
 J35                                 760.102241    2129.666171
 J36                                 796.329066    1505.538894
 J37                                 733.320157     528.677981
 J38                                 675.012333      96.675172
 J39                                2117.860812     438.681389
 J40                                1113.783214     751.578995
 J41                                1722.361752     540.916130
 J42                                1121.997995    2273.902193
 J43                                1737.644039    1933.230826
 J44                                 225.833946    2209.863786
 J45                                1817.400623      62.390520
 R1                                  470.277718    1994.057979

[VERTICES]

[END]
