[TITLE]

[JUNCTIONS]
 J1                                   16.0599
 J2                                    3.8540
 J3                                    6.5707
 J4                                    9.4544
 J5                                   12.7820
 J6                                   10.5517
 J7                                    4.4914
 J8                                    1.7618
 J9                                   15.6139
 J10                                  11.8404
 J11                                   5.6322
 J12                                  10.2907
 J13                                  12.1662
 J14                                  14.5682
 J15                                   7.4393
 J16                                   6.3328
 J17                                  13.5670
 J18                                   4.5820
 J19                                  15.5818
 J20                                  13.7741
 J21                                  15.9784
 J22                                  15.6084
 J23                                  10.3630
 J24                                  14.0612
 J25                                  12.8166
 J26                                   4.0901
 J27                                   5.4976
 J28                                   6.9186
 J29                                  10.1059
 J30                                   9.9782
 J31                                   8.2648
 J32                                  15.1892
 J33                                  15.7684
 J34                                  14.1230
 J35                                   3.9152
 J36                                  14.4957
 J37                                  13.7722
 J38                                  14.9927
 J39                                  13.0124
 J40                                  11.3796
 J41                                  11.7031
 J42                                  12.4066
 J43                                   3.1048
 J44                                   6.2995
 J45                                   6.9660
 J46                                  23.1240
 J47                                  12.8039
 J48                                  13.2139
 J49                                  10.7446
 J50                                  10.3571
 J51                                  10.7031
 J52                                  10.7035
 J53                                  10.2472
 J54                                  12.6190
 J55                                  14.8593
 J56                                  20.7935
 J57                                   5.2003
 J58                                   5.8829
 J59                                   8.8143
 J60                                   9.3550
 J61                                  16.5289
 J62                                  16.3579
 J63                                  16.8662
 J64                                  10.4327
 J65                                   9.7812
 J66                                   0.0000
 J67                                  10.5738
 J68                                   8.5350
 J69                                   5.4955
 J70                                  12.1518

[RESERVOIRS]
 R1                                   80.2359                                
 R2                                   87.3000                                

[TANKS]

[PIPES]
 PS1                             R1                              J1                                   50.0000     800.0000     140.0000       0.0000       
 PS2                             R2                              J46                                  50.0000     800.0000     140.0000       0.0000       
 P1                              J1                              J22                                 311.4639      80.0000     137.8336       0.0000       
 P2                              J1                              J40                                 373.1749      80.0000     137.0517       0.0000       
 P3                              J1                              J50                                 408.5449     100.0000     127.8065       0.0000       
 P4                              J1                              J51                                 504.0993      80.0000     105.0837       0.0000       
 P5                              J1                              J62                                 336.9842      80.0000     130.7859       0.0000       
 P6                              J2                              J7                                  491.0269      80.0000     125.1390       0.0000       
 P7                              J2                              J44                                 279.2590      80.0000     105.1655       0.0000       
 P8                              J2                              J57                                 447.0336      80.0000     103.5416       0.0000       
 P9                              J3                              J29                                 402.4518     125.0000     130.8528       0.0000       
 P10                             J3                              J67                                 537.7770     150.0000     118.8194       0.0000       
 P11                             J4                              J13                                 317.2648      80.0000     100.1907       0.0000       
 P12                             J4                              J29                                 622.7501      80.0000     100.9878       0.0000       
 P13                             J4                              J59                                 360.1611      80.0000     128.8292       0.0000       
 P14                             J5                              J39                                 396.8681      80.0000     116.5924       0.0000       
 P15                             J6                              J12                                 281.8290      80.0000     121.1726       0.0000       
 P16                             J6                              J49                                 425.5959      80.0000     105.3750       0.0000       
 P17                             J6                              J64                                 377.0478      80.0000     120.8108       0.0000       
 P18                             J7                              J15                                 309.2335      80.0000     123.3816       0.0000       
 P19                             J7                              J16                                 428.6739     200.0000     133.9636       0.0000       
 P20                             J7                              J44                                 408.5183     200.0000     111.7850       0.0000       
 P21                             J7                              J57                                 278.7317      80.0000     114.7092       0.0000       
 P22                             J7                              J63                                 487.8363     250.0000     106.4276       0.0000       
 P23                             J8                              J10                                 558.9902     100.0000     117.9488       0.0000       
 P24                             J8                              J43                                 403.4850     100.0000     110.8338       0.0000       
 P25                             J9                              J32                                 551.9934     200.0000     129.1932       0.0000       
 P26                             J9                              J37                                 668.6094      80.0000     101.9180       0.0000       
 P27                             J9                              J61                                 305.2827     100.0000     102.4154       0.0000       
 P28                             J9                              J67                                 328.1904     150.0000     135.5863       0.0000       
 P29                             J10                             J13                                 506.0037      80.0000     105.2904       0.0000       
 P30                             J10                             J29                                 346.5637     125.0000     131.1865       0.0000       
 P31                             J10                             J49                                 333.8968      80.0000     121.3828       0.0000       
 P32                             J10                             J60                                 655.9331      80.0000     109.2135       0.0000       
 P33                             J11                             J15                                 475.6336      80.0000     117.3642       0.0000       
 P34                             J11                             J45                                 394.0522     200.0000     110.3680       0.0000       
 P35                             J11                             J65                                 322.3513     200.0000     102.3426       0.0000       
 P36                             J12                             J29                                 571.7131      80.0000     137.0428       0.0000       
 P37                             J12                             J58                                 443.9221      80.0000     126.7833       0.0000       
 P38                             J13                             J42                                 368.4339      80.0000     100.5107       0.0000       
 P39                             J13                             J60                                 431.6027      80.0000     120.3476       0.0000       
 P40                             J14                             J19                                 612.6139      80.0000     137.6413       0.0000       
 P41                             J14                             J34                                 323.4209      80.0000     113.9680       0.0000       
 P42                             J15                             J56                                 524.2768      80.0000     126.8775       0.0000       
 P43                             J15                             J65                                 280.1894      80.0000     130.7137       0.0000       
 P44                             J16                             J41                                 304.3044     200.0000     134.1990       0.0000       
 P45                             J16                             J44                                 391.1172     100.0000     104.5294       0.0000       
 P46                             J17                             J25                                 409.8903      80.0000     105.8062       0.0000       
 P47                             J17                             J33                                 439.0600     125.0000     101.8053       0.0000       
 P48                             J17                             J48                                 682.7223      80.0000     124.0990       0.0000       
 P49                             J17                             J53                                 342.6018     150.0000     134.1870       0.0000       
 P50                             J18                             J35                                 425.9607      80.0000     110.4374       0.0000       
 P51                             J19                             J33                                 443.8820      80.0000     135.4902       0.0000       
 P52                             J19                             J34                                 522.8875      80.0000     110.9610       0.0000       
 P53                             J19                             J39                                 580.6697      80.0000     119.7992       0.0000       
 P54                             J19                             J55                                 458.3361      80.0000     139.2953       0.0000       
 P55                             J20                             J32                                 583.1418      80.0000     122.8208       0.0000       
 P56                             J20                             J61                                 336.4409      80.0000     120.8394       0.0000       
 P57                             J21                             J33                                 420.5945      80.0000     134.9566       0.0000       
 P58                             J21                             J47                                 397.1079      80.0000     131.7017       0.0000       
 P59                             J22                             J36                                 390.7391      80.0000     118.4311       0.0000       
 P60                             J22                             J40                                 471.0060      80.0000     132.3556       0.0000       
 P61                             J23                             J38                                 390.0049      80.0000     110.6381       0.0000       
 P62                             J23                             J47                                 478.4844      80.0000     131.7890       0.0000       
 P63                             J23                             J59                                 305.0316      80.0000     103.1767       0.0000       
 P64                             J24                             J56                                 636.5711      80.0000     137.1636       0.0000       
 P65                             J24                             J65                                 441.7229      80.0000     104.3523       0.0000       
 P66                             J26                             J30                                 422.4309      80.0000     138.6982       0.0000       
 P67                             J26                             J43                                 298.1511      80.0000     127.4218       0.0000       
 P68                             J27                             J35                                 401.7511      80.0000     111.0210       0.0000       
 P69                             J27                             J69                                 416.8229      80.0000     106.2807       0.0000       
 P70                             J28                             J37                                 421.6212     100.0000     133.2664       0.0000       
 P71                             J28                             J40                                 564.8188      80.0000     124.6044       0.0000       
 P72                             J28                             J58                                 428.4379      80.0000     139.1284       0.0000       
 P73                             J28                             J67                                 634.0717      80.0000     103.8481       0.0000       
 P74                             J31                             J45                                 325.4708     200.0000     115.0185       0.0000       
 P75                             J31                             J53                                 483.3914     150.0000     129.6456       0.0000       
 P76                             J32                             J37                                 602.9429      80.0000     113.5255       0.0000       
 P77                             J32                             J41                                 325.9921     200.0000     109.5609       0.0000       
 P78                             J33                             J39                                 717.2588      80.0000     139.7968       0.0000       
 P79                             J33                             J48                                 561.3155      80.0000     133.7083       0.0000       
 P80                             J34                             J48                                 336.9226      80.0000     116.1563       0.0000       
 P81                             J35                             J36                                 736.1397      80.0000     102.6290       0.0000       
 P82                             J35                             J68                                 447.3213      80.0000     112.5402       0.0000       
 P83                             J37                             J40                                 565.1776      80.0000     128.0461       0.0000       
 P84                             J37                             J62                                 365.7489     125.0000     123.2378       0.0000       
 P85                             J38                             J61                                 316.2701     100.0000     109.6075       0.0000       
 P86                             J39                             J47                                 614.7551      80.0000     113.6652       0.0000       
 P87                             J39                             J52                                 595.9776      80.0000     104.0288       0.0000       
 P88                             J39                             J55                                 467.2781      80.0000     125.3708       0.0000       
 P89                             J40                             J68                                 341.0916      80.0000     127.3013       0.0000       
 P90                             J41                             J44                                 324.6490     100.0000     117.3862       0.0000       
 P91                             J42                             J70                                 312.2694      80.0000     108.5883       0.0000       
 P92                             J43                             J60                                 336.9846      80.0000     137.6903       0.0000       
 P93                             J43                             J66                                 469.5032      80.0000     134.9366       0.0000       
 P94                             J44                             J50                                 307.4226     200.0000     117.7912       0.0000       
 P95                             J46                             J56                                 355.9465     200.0000     122.6588       0.0000       
 P96                             J46                             J63                                 388.6176     300.0000     106.7009       0.0000       
 P97                             J50                             J51                                 393.8353      80.0000     129.7621       0.0000       
 P98                             J50                             J62                                 479.3256     125.0000     134.6199       0.0000       
 P99                             J52                             J70                                 341.1513      80.0000     139.1846       0.0000       
 P100                            J54                             J70                                 413.1661      80.0000     123.8521       0.0000       
 P101                            J56                             J65                                 424.1479     200.0000     125.0938       0.0000       
 P102                            J57                             J63                                 531.4338      80.0000     134.2219       0.0000       
 P103                            J58                             J69                                 552.0873      80.0000     136.4889       0.0000       

[PUMPS]

[VALVES]

[DEMANDS]
 J1                                    3.414816                                
 J2                                    0.524353                                
 J3                                    2.715409                                
 J4                                    0.568435                                
 J5                                    1.196715                                
 J6                                    0.855373                                
 J7                                    1.070932                                
 J8                                    1.282957                                
 J9                                    3.094786                                
 J10                                   2.374831                                
 J11                                   2.013959                                
 J12                                   1.531346                                
 J13                                   0.487002                                
 J14                                   0.851626                                
 J15                                   0.888417                                
 J16                                   1.174257                                
 J17                                   3.409457                                
 J18                                   0.725009                                
 J19                                   1.705257                                
 J20                                   1.293142                                
 J21                                   1.744936                                
 J22                                   0.671914                                
 J23                                   0.589467                                
 J24                                   0.628384                                
 J25                                   0.813152                                
 J26                                   0.319757                                
 J27                                   0.330709                                
 J28                                   1.350957                                
 J29                                   1.252851                                
 J30                                   2.400116                                
 J31                                   0.994513                                
 J32                                   0.756025                                
 J33                                   0.571254                                
 J34                                   2.668257                                
 J35                                   1.000023                                
 J36                                   0.532726                                
 J37                                   4.005926                                
 J38                                   3.515410                                
 J39                                   1.684859                                
 J40                                   1.179271                                
 J41                                   0.638492                                
 J42                                   1.952681                                
 J43                                   0.705071                                
 J44                                   0.101803                                
 J45                                   0.397419                                
 J46                                   1.151991                                
 J47                                   1.847564                                
 J48                                   0.648870                                
 J49                                   0.829260                                
 J50                                   1.974737                                
 J51                                   1.376610                                
 J52                                   0.657826                                
 J53                                   0.886283                                
 J54                                   0.386685                                
 J55                                   0.350977                                
 J56                                   9.821404                                
 J57                                   0.577208                                
 J58                                   0.526241                                
 J59                                   0.433567                                
 J60                                   0.703518                                
 J61                                   1.601773                                
 J62                                   1.599119                                
 J63                                   0.241374                                
 J64                                   0.515498                                
 J65                                   0.577021                                
 J66                                   2.540628                                
 J67                                   0.371027                                
 J68                                   0.797943                                
 J69                                   1.193959                                
 J70                                   0.962979                                

[EMITTERS]

[STATUS]

[PATTERNS]

[CURVES]

[CONTROLS]

[RULES]

[QUALITY]

[SOURCES]

[MIXING]

[REACTIONS]
 ORDER  BULK            1.00
 ORDER  WALL            1
 ORDER  TANK            1.00
 GLOBAL BULK            0.000000
 GLOBAL WALL            0.000000

[ENERGY]
 GLOBAL EFFIC        75.0000
 DEMAND CHARGE       0.0000

[TIMES]
 DURATION            0:00:00
 HYDRAULIC TIMESTEP  1:00:00
 QUALITY TIMESTEP    0:06:00
 REPORT TIMESTEP     1:00:00
 REPORT START        0:00:00
 PATTERN TIMESTEP    1:00:00
 PATTERN START       0:00:00
 RULE TIMESTEP       0:06:00
 START CLOCKTIME     0:00:00
 STATISTIC           NONE

[OPTIONS]
 UNITS               LPS
 PRESSURE            METERS
 HEADLOSS            H-W
 UNBALANCED          STOP
 QUALITY             NONE
 DEMAND MULTIPLIER   1.0000
 EMITTER EXPONENT    0.5000
 VISCOSITY           1.000000
 DIFFUSIVITY         1.000000
 SPECIFIC GRAVITY    1.000000
 TRIALS              500
 ACCURACY            0.00000001
 TOLERANCE           0.01000000
 CHECKFREQ           2
 MAXCHECK            10
 DAMPLIMIT           0.00000000

[REPORT]
 PAGESIZE            0
 STATUS              NO
 SUMMARY             YES
 ENERGY              NO
 MESSAGES            YES
 NODES               NONE
 LINKS               NONE
 Elevation           NO
 Demand              PRECISION 2
 Head                PRECISION 2
 Pressure            PRECISION 2
 Quality             PRECISION 2
 Length              NO
 Diameter            NO
 Flow                PRECISION 2
 Velocity            PRECISION 2
 Headloss            PRECISION 2
 Quality             NO
 State               NO
 Setting             NO
 Reaction            NO

[COORDINATES]
 J1                                 1263.186037    2478.570677
 J2                                 1821.465219    2818.550561
 J3                                  987.846374    1386.010371
 J4                                 1054.644973     936.750358
 J5                                 1822.594092      54.818839
 J6                                   80.515083    1433.255434
 J7                                 2239.780528    2683.082078
 J8                                   94.474199     624.048182
 J9                                 1682.617510    1586.243008
 J10                                 481.352270     986.300240
 J11                                2487.454662    2182.115184
 J12                                 296.634381    1581.832813
 J13                                 818.013879     760.948634
 J14                                2980.560421      28.124386
 J15                                2471.955814    2563.472923
 J16                                2095.373962    2320.378979
 J17                                2630.618219    1054.184436
 J18                                 210.707674    2855.793274
 J19                                2510.611052     284.528443
 J20                                2144.012906    1702.855986
 J21                                2190.552456     953.675472
 J22                                1075.744966    2659.232953
 J23                                1571.366028    1088.128128
 J24                                2983.501267    2150.870175
 J25                                2452.237492    1385.583120
 J26                                 498.213556     143.274881
 J27                                 111.111798    2266.167338
 J28                                 997.029580    1787.809897
 J29                                 653.577362    1248.144318
 J30                                 855.880225     133.383536
 J31                                2852.053772    1658.429085
 J32                                1793.439184    2030.859359
 J33                                2475.132746     704.249524
 J34                                2968.742066     309.690541
 J35                                 331.038243    2527.832246
 J36                                 820.845528    2896.562793
 J37                                1296.768183    1971.632547
 J38                                1846.926052    1239.366961
 J39                                2013.399984     310.398677
 J40                                 965.464652    2289.706343
 J41                                1811.911848    2291.283917
 J42                                1022.392841     488.383378
 J43                                 319.568725     358.642581
 J44                                1871.734952    2568.972170
 J45                                2678.269782    1896.574674
 J46                                2912.524947    2983.484302
 J47                                1872.823525     843.039066
 J48                                2995.222979     604.063541
 J49                                 255.877822    1134.448709
 J50                                1609.919538    2627.565642
 J51                                1362.612211    2908.223330
 J52                                1498.171592     488.308518
 J53                                2849.556912    1245.677392
 J54                                1343.573802      12.774828
 J55                                2253.494383       1.057879
 J56                                2928.622833    2695.654290
 J57                                2164.235063    2927.614798
 J58                                 667.184062    1686.679805
 J59                                1393.271472     883.817270
 J60                                 582.683624     465.771997
 J61                                1946.620978    1473.940875
 J62                                1428.240740    2248.958868
 J63                                2593.396368    2950.055435
 J64                                  17.679206    1754.253934
 J65                                2670.278000    2390.804865
 J66                                  89.827223      14.373161
 J67                                1413.436314    1452.409647
 J68                                 723.601392    2441.534913
 J69                                 347.250429    2026.277885
 J70                                1251.048487     367.813794
 R1                                 1213.186037    2428.570677
 R2                                 2862.524947    2933.484302

[VERTICES]

[END]
