[TITLE]

[JUNCTIONS]
 J1                                   23.9725
 J2                                   21.3478
 J3                                   14.5378
 J4                                    8.1987
 J5                                    6.5254
 J6                                   17.5567
 J7                                   26.4410
 J8                                   26.1129
 J9                                    8.9502
 J10                                  21.3559
 J11                                  14.6159
 J12                                   7.0737
 J13                                  31.4280
 J14                                  25.2332
 J15                                  27.1379
 J16                                   4.4162
 J17                                  16.3243
 J18                                  36.5468
 J19                                  23.1322
 J20                                   9.9398
 J21                                   3.0104
 J22                                  21.3985
 J23                                  35.6169
 J24                                   0.0000
 J25                                  13.3496
 J26                                  28.3063
 J27                                   8.3532
 J28                                   7.2480
 J29                                  20.2245
 J30                                  17.3471
 J31                                   7.0640
 J32                                  15.4670
 J33                                  29.4853
 J34                                  22.7393
 J35                                  27.1758
 J36                                  17.8013
 J37                                  26.3224
 J38                                  16.3512
 J39                                   2.5253
 J40                                   4.0183
 J41                                   0.5849
 J42                                  22.6987
 J43                                   4.5686
 J44                                  26.7384
 J45                                  11.3201
 J46                                   5.9708
 J47                                  16.8387
 J48                                  27.0181
 J49                                  22.6884
 J50                                   1.4377
 J51                                   3.0527
 J52                                  12.0467
 J53                                  31.3023
 J54                                  12.9862
 J55                                  28.1847
 J56                                   6.8339
 J57                                   9.0449
 J58                                  28.5331
 J59                                  24.2552
 J60                                   6.6299
 J61                                   9.3640
 J62                                  25.2523
 J63                                   7.6782
 J64                                   8.6151
 J65                                  13.5830
 J66                                  12.0239
 J67                                  18.3266
 J68                                  17.3513
 J69                                  16.3815
 J70                                  35.4558
 J71                                   7.6268
 J72                                   2.8485
 J73                                  10.4347
 J74                                   8.5599
 J75                                  28.8415
 J76                                  23.6708
 J77                                  25.2284
 J78                                   1.9890
 J79                                  34.2452
 J80                                   0.9876
 J81                                  16.2736
 J82                                  18.3376
 J83                                  18.0479
 J84                                  17.4866
 J85                                   5.5750
 J86                                   6.0568
 J87                                  22.4219
 J88                                  13.1736
 J89                                  10.3212
 J90                                   9.7642
 J91                                  22.9406
 J92                                  16.2238
 J93                                  34.4747
 J94                                   8.0986
 J95                                   4.4522
 J96                                  15.8320
 J97                                   7.4507
 J98                                   2.7241
 J99                                  29.8253
 J100                                  8.1035
 J101                                  6.7120
 J102                                 31.8446
 J103                                 11.6957
 J104                                 32.1565

[RESERVOIRS]
 R1                                   93.2654                                
 R2                                   91.8937                                

[TANKS]

[PIPES]
 PS1                             R1                              J23                                  50.0000     800.0000     140.0000       0.0000       
 PS2                             R2                              J79                                  50.0000     800.0000     140.0000       0.0000       
 P1                              J1                              J7                                  259.3388     150.0000     139.8932       0.0000       
 P2                              J1                              J14                                 234.9473      80.0000     124.3899       0.0000       
 P3                              J1                              J19                                 307.8733      80.0000     109.0280       0.0000       
 P4                              J1                              J29                                 196.0566      80.0000     109.0615       0.0000       
 P5                              J1                              J68                                 298.7832     125.0000     114.9686       0.0000       
 P6                              J2                              J34                                 285.8289      80.0000     101.9822       0.0000       
 P7                              J2                              J42                                 262.9756      80.0000     135.0243       0.0000       
 P8                              J2                              J59                                 351.9607      80.0000     112.9245       0.0000       
 P9                              J2                              J62                                 381.1787      80.0000     133.3627       0.0000       
 P10                             J2                              J67                                 175.3685      80.0000     132.7500       0.0000       
 P11                             J2                              J68                                 214.3758      80.0000     134.8053       0.0000       
 P12                             J3                              J9                                  264.1474      80.0000     117.3503       0.0000       
 P13                             J3                              J52                                 184.3898      80.0000     106.1923       0.0000       
 P14                             J3                              J94                                 196.7301     200.0000     107.0360       0.0000       
 P15                             J3                              J96                                 223.6517      80.0000     122.4677       0.0000       
 P16                             J3                              J97                                 225.0705     150.0000     136.3252       0.0000       
 P17                             J4                              J39                                 234.5341     150.0000     124.0942       0.0000       
 P18                             J4                              J51                                 262.9828      80.0000     139.1735       0.0000       
 P19                             J4                              J64                                 344.3833      80.0000     107.3869       0.0000       
 P20                             J4                              J71                                 369.8574      80.0000     102.9572       0.0000       
 P21                             J4                              J86                                 235.0116     100.0000     138.3148       0.0000       
 P22                             J4                              J98                                 312.9429     125.0000     133.6167       0.0000       
 P23                             J5                              J28                                 227.4558      80.0000     104.3718       0.0000       
 P24                             J5                              J51                                 297.7319      80.0000     126.2117       0.0000       
 P25                             J5                              J63                                 214.6874      80.0000     105.1298       0.0000       
 P26                             J5                              J64                                 288.9636      80.0000     137.1320       0.0000       
 P27                             J5                              J77                                 287.3629     100.0000     105.4560       0.0000       
 P28                             J6                              J17                                 246.0787      80.0000     123.4203       0.0000       
 P29                             J6                              J45                                 182.2964      80.0000     113.2632       0.0000       
 P30                             J6                              J82                                 207.5450     100.0000     106.2041       0.0000       
 P31                             J6                              J96                                 166.9822      80.0000     101.5628       0.0000       
 P32                             J6                              J101                                271.8219     100.0000     106.5341       0.0000       
 P33                             J7                              J19                                 292.6290      80.0000     110.1097       0.0000       
 P34                             J7                              J29                                 241.8100      80.0000     137.9109       0.0000       
 P35                             J7                              J69                                 259.7920      80.0000     136.1520       0.0000       
 P36                             J7                              J76                                 186.5872     200.0000     136.1449       0.0000       
 P37                             J8                              J13                                 305.6043      80.0000     103.2063       0.0000       
 P38                             J8                              J35                                 212.4519      80.0000     114.3118       0.0000       
 P39                             J8                              J55                                 266.2885      80.0000     127.2812       0.0000       
 P40                             J8                              J58                                 210.0687      80.0000     123.7094       0.0000       
 P41                             J9                              J17                                 173.5244      80.0000     121.5876       0.0000       
 P42                             J9                              J90                                 179.9646      80.0000     129.5903       0.0000       
 P43                             J9                              J97                                 205.7221      80.0000     105.0824       0.0000       
 P44                             J10                             J30                                 274.1264     100.0000     127.7757       0.0000       
 P45                             J10                             J38                                 190.2236      80.0000     128.6792       0.0000       
 P46                             J10                             J81                                 258.5120      80.0000     138.1040       0.0000       
 P47                             J10                             J92                                 329.7984      80.0000     122.4559       0.0000       
 P48                             J10                             J97                                 329.3299     150.0000     135.4936       0.0000       
 P49                             J11                             J44                                 190.2560     100.0000     121.3547       0.0000       
 P50                             J11                             J72                                 230.3305      80.0000     119.6566       0.0000       
 P51                             J11                             J84                                 164.6181      80.0000     124.0416       0.0000       
 P52                             J11                             J98                                 258.9017     125.0000     129.7285       0.0000       
 P53                             J12                             J43                                 182.9626      80.0000     113.6855       0.0000       
 P54                             J12                             J52                                 322.9276      80.0000     133.3467       0.0000       
 P55                             J12                             J71                                 293.4684      80.0000     108.9475       0.0000       
 P56                             J12                             J85                                 305.5332      80.0000     100.3096       0.0000       
 P57                             J12                             J98                                 192.5725      80.0000     122.0451       0.0000       
 P58                             J13                             J48                                 228.3699     250.0000     114.8205       0.0000       
 P59                             J13                             J55                                 205.0120      80.0000     118.6985       0.0000       
 P60                             J13                             J58                                 360.8156     300.0000     103.3409       0.0000       
 P61                             J13                             J99                                 239.3962     125.0000     128.4792       0.0000       
 P62                             J14                             J19                                 315.2700      80.0000     108.7839       0.0000       
 P63                             J14                             J42                                 238.1456      80.0000     127.5147       0.0000       
 P64                             J14                             J67                                 167.8387      80.0000     110.2305       0.0000       
 P65                             J15                             J62                                 179.3388      80.0000     119.1675       0.0000       
 P66                             J15                             J83                                 195.5125      80.0000     121.7922       0.0000       
 P67                             J16                             J40                                 177.9887      80.0000     116.9656       0.0000       
 P68                             J16                             J41                                 253.6381      80.0000     123.5113       0.0000       
 P69                             J16                             J88                                 177.7475      80.0000     110.6578       0.0000       
 P70                             J16                             J95                                 186.0761      80.0000     110.0740       0.0000       
 P71                             J17                             J82                                 226.1410      80.0000     109.1473       0.0000       
 P72                             J17                             J90                                 162.5626      80.0000     111.7612       0.0000       
 P73                             J17                             J96                                 166.9123      80.0000     118.4554       0.0000       
 P74                             J18                             J23                                 225.2611      80.0000     115.1096       0.0000       
 P75                             J18                             J35                                 319.4093     250.0000     126.6349       0.0000       
 P76                             J18                             J49                                 239.5462      80.0000     111.8591       0.0000       
 P77                             J18                             J58                                 247.0237     350.0000     103.8295       0.0000       
 P78                             J18                             J70                                 383.5314      80.0000     115.6077       0.0000       
 P79                             J18                             J91                                 362.4270      80.0000     139.1825       0.0000       
 P80                             J18                             J102                                226.4585      80.0000     116.3936       0.0000       
 P81                             J19                             J69                                 282.0958      80.0000     126.5717       0.0000       
 P82                             J20                             J24                                 306.0481      80.0000     125.1286       0.0000       
 P83                             J20                             J28                                 182.1558      80.0000     125.9446       0.0000       
 P84                             J20                             J64                                 234.2310      80.0000     122.4935       0.0000       
 P85                             J20                             J80                                 366.5364      80.0000     133.8560       0.0000       
 P86                             J21                             J25                                 187.4245     100.0000     136.5465       0.0000       
 P87                             J21                             J71                                 197.1146     100.0000     115.0957       0.0000       
 P88                             J21                             J89                                 201.8735      80.0000     136.5037       0.0000       
 P89                             J21                             J94                                 335.4464      80.0000     105.4841       0.0000       
 P90                             J22                             J35                                 261.4806     200.0000     129.6222       0.0000       
 P91                             J22                             J70                                 358.0604      80.0000     124.9799       0.0000       
 P92                             J22                             J76                                 231.9968     200.0000     104.4620       0.0000       
 P93                             J22                             J87                                 152.1082      80.0000     130.4081       0.0000       
 P94                             J23                             J58                                 219.0526      80.0000     120.6961       0.0000       
 P95                             J23                             J102                                184.1871      80.0000     110.9787       0.0000       
 P96                             J23                             J104                                180.1168      80.0000     112.1622       0.0000       
 P97                             J24                             J74                                 264.9678      80.0000     132.6072       0.0000       
 P98                             J24                             J80                                 242.0515      80.0000     129.1508       0.0000       
 P99                             J25                             J61                                 252.6073      80.0000     127.1751       0.0000       
 P100                            J25                             J89                                 226.9030      80.0000     128.5572       0.0000       
 P101                            J25                             J99                                 186.0513     125.0000     130.8413       0.0000       
 P102                            J26                             J29                                 338.9086      80.0000     127.8983       0.0000       
 P103                            J26                             J32                                 254.8566      80.0000     116.4468       0.0000       
 P104                            J26                             J48                                 249.4592      80.0000     105.4147       0.0000       
 P105                            J26                             J55                                 239.3189      80.0000     113.4807       0.0000       
 P106                            J26                             J76                                 190.9623      80.0000     108.4241       0.0000       
 P107                            J27                             J28                                 185.9673      80.0000     130.1539       0.0000       
 P108                            J27                             J63                                 182.9245      80.0000     100.3970       0.0000       
 P109                            J28                             J63                                 166.4029      80.0000     132.3331       0.0000       
 P110                            J28                             J64                                 243.4432      80.0000     109.6247       0.0000       
 P111                            J29                             J32                                 390.7615      80.0000     135.0947       0.0000       
 P112                            J29                             J45                                 323.1170      80.0000     125.4804       0.0000       
 P113                            J30                             J38                                 274.1216      80.0000     129.8690       0.0000       
 P114                            J30                             J50                                 443.1646      80.0000     113.5578       0.0000       
 P115                            J30                             J73                                 153.4056      80.0000     116.0017       0.0000       
 P116                            J31                             J57                                 242.1543      80.0000     109.6399       0.0000       
 P117                            J31                             J73                                 303.3450      80.0000     111.1447       0.0000       
 P118                            J31                             J100                                183.0479      80.0000     134.1146       0.0000       
 P119                            J32                             J48                                 187.0562     125.0000     105.4226       0.0000       
 P120                            J32                             J101                                198.8009     125.0000     101.1887       0.0000       
 P121                            J33                             J53                                 170.8730     150.0000     109.0036       0.0000       
 P122                            J33                             J58                                 273.7377     250.0000     101.5515       0.0000       
 P123                            J33                             J79                                 216.8113     200.0000     120.6144       0.0000       
 P124                            J33                             J104                                200.2989      80.0000     103.6040       0.0000       
 P125                            J34                             J41                                 308.5127      80.0000     135.1294       0.0000       
 P126                            J34                             J59                                 300.0187      80.0000     127.2271       0.0000       
 P127                            J34                             J83                                 162.8858      80.0000     134.4369       0.0000       
 P128                            J34                             J88                                 304.2735      80.0000     137.0524       0.0000       
 P129                            J35                             J55                                 359.5305      80.0000     129.7890       0.0000       
 P130                            J35                             J70                                 252.6916      80.0000     111.9786       0.0000       
 P131                            J36                             J45                                 169.5703      80.0000     128.4117       0.0000       
 P132                            J36                             J59                                 325.6828      80.0000     134.1073       0.0000       
 P133                            J36                             J68                                 312.1419      80.0000     137.8528       0.0000       
 P134                            J36                             J82                                 264.5116      80.0000     120.8180       0.0000       
 P135                            J37                             J44                                 286.6435      80.0000     123.2033       0.0000       
 P136                            J37                             J66                                 252.9455      80.0000     115.6338       0.0000       
 P137                            J37                             J81                                 263.1714      80.0000     111.4393       0.0000       
 P138                            J37                             J84                                 239.8676      80.0000     121.6742       0.0000       
 P139                            J37                             J92                                 261.8500      80.0000     135.3476       0.0000       
 P140                            J38                             J47                                 370.1777      80.0000     131.2956       0.0000       
 P141                            J38                             J56                                 374.7986      80.0000     139.0185       0.0000       
 P142                            J38                             J90                                 324.0847      80.0000     119.8421       0.0000       
 P143                            J38                             J97                                 395.6366      80.0000     113.4546       0.0000       
 P144                            J39                             J51                                 185.8638      80.0000     132.9430       0.0000       
 P145                            J39                             J89                                 234.6490     200.0000     101.5826       0.0000       
 P146                            J39                             J103                                177.5910      80.0000     121.2884       0.0000       
 P147                            J40                             J41                                 204.3325      80.0000     124.3894       0.0000       
 P148                            J40                             J54                                 292.3534      80.0000     111.4681       0.0000       
 P149                            J40                             J95                                 220.8954      80.0000     112.5342       0.0000       
 P150                            J41                             J83                                 257.6585      80.0000     126.5823       0.0000       
 P151                            J42                             J62                                 308.1700      80.0000     106.7666       0.0000       
 P152                            J42                             J67                                 202.0597      80.0000     103.1418       0.0000       
 P153                            J43                             J81                                 303.9790      80.0000     114.7483       0.0000       
 P154                            J43                             J84                                 176.9870      80.0000     113.5821       0.0000       
 P155                            J43                             J98                                 180.3398      80.0000     110.1086       0.0000       
 P156                            J44                             J66                                 372.2002      80.0000     124.3632       0.0000       
 P157                            J44                             J84                                 232.6501      80.0000     128.2688       0.0000       
 P158                            J46                             J50                                 320.9523      80.0000     134.3597       0.0000       
 P159                            J46                             J54                                 255.6119      80.0000     121.2214       0.0000       
 P160                            J47                             J65                                 182.5388      80.0000     127.3350       0.0000       
 P161                            J48                             J55                                 180.7199      80.0000     122.8575       0.0000       
 P162                            J48                             J61                                 241.0840     200.0000     131.6882       0.0000       
 P163                            J49                             J91                                 290.4644      80.0000     110.1385       0.0000       
 P164                            J49                             J102                                214.9150      80.0000     125.6436       0.0000       
 P165                            J50                             J57                                 418.8374      80.0000     117.3673       0.0000       
 P166                            J51                             J77                                 319.1007      80.0000     136.1000       0.0000       
 P167                            J52                             J71                                 164.7429      80.0000     139.0994       0.0000       
 P168                            J52                             J85                                 313.9587      80.0000     125.1311       0.0000       
 P169                            J52                             J94                                 228.2519      80.0000     118.7638       0.0000       
 P170                            J53                             J75                                 279.5144      80.0000     113.9705       0.0000       
 P171                            J53                             J93                                 330.6555     125.0000     124.8640       0.0000       
 P172                            J54                             J65                                 242.8175      80.0000     131.6469       0.0000       
 P173                            J54                             J95                                 242.2613      80.0000     111.7791       0.0000       
 P174                            J56                             J65                                 213.2198      80.0000     108.6796       0.0000       
 P175                            J56                             J82                                 228.4937      80.0000     108.0213       0.0000       
 P176                            J56                             J88                                 419.3952      80.0000     136.4393       0.0000       
 P177                            J56                             J90                                 207.6194      80.0000     119.4466       0.0000       
 P178                            J57                             J78                                 239.0027      80.0000     136.9071       0.0000       
 P179                            J59                             J68                                 263.6345     100.0000     119.1382       0.0000       
 P180                            J59                             J88                                 187.5930      80.0000     100.3804       0.0000       
 P181                            J60                             J66                                 199.7965      80.0000     121.7158       0.0000       
 P182                            J60                             J92                                 238.7069      80.0000     101.2851       0.0000       
 P183                            J60                             J100                                258.4188      80.0000     108.1465       0.0000       
 P184                            J61                             J94                                 253.1081     200.0000     125.9286       0.0000       
 P185                            J61                             J101                                233.5429      80.0000     113.2890       0.0000       
 P186                            J64                             J86                                 210.6008      80.0000     113.2546       0.0000       
 P187                            J65                             J95                                 294.0961      80.0000     129.3138       0.0000       
 P188                            J66                             J92                                 286.6247      80.0000     104.0031       0.0000       
 P189                            J67                             J68                                 201.1121      80.0000     105.3148       0.0000       
 P190                            J69                             J76                                 263.9175      80.0000     100.8071       0.0000       
 P191                            J69                             J87                                 172.4505      80.0000     128.9117       0.0000       
 P192                            J70                             J91                                 224.2474      80.0000     132.8343       0.0000       
 P193                            J72                             J74                                 198.7555      80.0000     132.3294       0.0000       
 P194                            J72                             J80                                 181.8829      80.0000     128.0163       0.0000       
 P195                            J72                             J98                                 254.3017      80.0000     125.4541       0.0000       
 P196                            J73                             J92                                 206.7358      80.0000     128.9289       0.0000       
 P197                            J74                             J80                                 208.6396      80.0000     132.4963       0.0000       
 P198                            J75                             J79                                 249.0674      80.0000     120.7835       0.0000       
 P199                            J75                             J89                                 241.4809      80.0000     124.9236       0.0000       
 P200                            J75                             J93                                 212.7874      80.0000     110.4959       0.0000       
 P201                            J75                             J103                                180.3733      80.0000     130.5582       0.0000       
 P202                            J77                             J93                                 182.9479     100.0000     114.4603       0.0000       
 P203                            J77                             J103                                298.0815      80.0000     113.2311       0.0000       
 P204                            J78                             J100                                259.4229      80.0000     131.8469       0.0000       
 P205                            J79                             J89                                 334.6519     200.0000     115.2921       0.0000       
 P206                            J79                             J99                                 188.4275      80.0000     114.0633       0.0000       
 P207                            J80                             J86                                 163.0361      80.0000     127.9771       0.0000       
 P208                            J81                             J84                                 254.7704      80.0000     114.4546       0.0000       
 P209                            J81                             J85                                 218.5702      80.0000     126.7123       0.0000       
 P210                            J82                             J88                                 375.3395      80.0000     138.3871       0.0000       
 P211                            J82                             J90                                 226.0737      80.0000     108.5723       0.0000       
 P212                            J85                             J97                                 178.4992      80.0000     120.4789       0.0000       
 P213                            J86                             J98                                 289.0425      80.0000     121.8802       0.0000       
 P214                            J88                             J95                                 214.7474      80.0000     114.4664       0.0000       
 P215                            J89                             J99                                 269.3112      80.0000     111.3880       0.0000       
 P216                            J89                             J103                                190.5485      80.0000     137.8325       0.0000       
 P217                            J94                             J101                                251.2715      80.0000     109.5964       0.0000       
 P218                            J96                             J101                                233.4631      80.0000     137.8702       0.0000       

[PUMPS]

[VALVES]

[DEMANDS]
 J1                                    0.815894                                
 J2                                    1.491510                                
 J3                                    0.749176                                
 J4                                    0.378563                                
 J5                                    0.693784                                
 J6                                    0.624202                                
 J7                                    0.503756                                
 J8                                    1.181760                                
 J9                                    2.267678                                
 J10                                   2.516697                                
 J11                                   2.730567                                
 J12                                   1.891693                                
 J13                                   2.351304                                
 J14                                   2.760132                                
 J15                                   1.146624                                
 J16                                   3.104938                                
 J17                                   0.865223                                
 J18                                   0.550312                                
 J19                                   2.024990                                
 J20                                   0.859978                                
 J21                                   0.696734                                
 J22                                   1.012489                                
 J23                                   0.246584                                
 J24                                   1.351700                                
 J25                                   2.246305                                
 J26                                   0.936497                                
 J27                                   2.000997                                
 J28                                   1.853164                                
 J29                                   1.615072                                
 J30                                   2.067765                                
 J31                                   0.755527                                
 J32                                   1.916727                                
 J33                                   0.771366                                
 J34                                   0.785311                                
 J35                                   3.192309                                
 J36                                   1.663683                                
 J37                                   1.251592                                
 J38                                   0.874558                                
 J39                                   0.617759                                
 J40                                   1.385654                                
 J41                                   0.577327                                
 J42                                   1.191925                                
 J43                                   1.121736                                
 J44                                   8.068415                                
 J45                                   2.275566                                
 J46                                   1.071831                                
 J47                                   2.158121                                
 J48                                   1.046149                                
 J49                                   0.682187                                
 J50                                   0.459518                                
 J51                                   0.994157                                
 J52                                   1.363623                                
 J53                                   4.201856                                
 J54                                   0.450568                                
 J55                                   1.009610                                
 J56                                   0.760998                                
 J57                                   3.921834                                
 J58                                   1.759665                                
 J59                                   1.410217                                
 J60                                   1.043711                                
 J61                                   0.624255                                
 J62                                   0.252971                                
 J63                                   0.704864                                
 J64                                   0.790016                                
 J65                                   1.016665                                
 J66                                   0.775427                                
 J67                                   0.521808                                
 J68                                   0.678484                                
 J69                                   1.161705                                
 J70                                   0.954791                                
 J71                                   0.940689                                
 J72                                   1.899440                                
 J73                                   1.186845                                
 J74                                   1.502946                                
 J75                                   0.739007                                
 J76                                   0.760742                                
 J77                                   1.352595                                
 J78                                   0.905599                                
 J79                                   0.278605                                
 J80                                   1.684298                                
 J81                                   1.075482                                
 J82                                   1.822681                                
 J83                                   2.680715                                
 J84                                   0.533893                                
 J85                                   2.450720                                
 J86                                   1.446564                                
 J87                                   2.687388                                
 J88                                   0.360153                                
 J89                                   1.172580                                
 J90                                   0.896840                                
 J91                                   3.862663                                
 J92                                   1.918820                                
 J93                                   1.416962                                
 J94                                   1.462863                                
 J95                                   0.810805                                
 J96                                   0.490656                                
 J97                                   4.281379                                
 J98                                   1.481012                                
 J99                                   0.941205                                
 J100                                  1.385095                                
 J101                                  1.434028                                
 J102                                  1.202449                                
 J103                                  1.418150                                
 J104                                  1.017923                                

[EMITTERS]

[STATUS]

[PATTERNS]

[CURVES]

[CONTROLS]

[RULES]

[QUALITY]

[SOURCES]

[MIXING]

[REACTIONS]
 ORDER  BULK            1.00
 ORDER  WALL            1
 ORDER  TANK            1.00
 GLOBAL BULK            0.000000
 GLOBAL WALL            0.000000

[ENERGY]
 GLOBAL EFFIC        75.0000
 DEMAND CHARGE       0.0000

[TIMES]
 DURATION            0:00:00
 HYDRAULIC TIMESTEP  1:00:00
 QUALITY TIMESTEP    0:06:00
 REPORT TIMESTEP     1:00:00
 REPORT START        0:00:00
 PATTERN TIMESTEP    1:00:00
 PATTERN START       0:00:00
 RULE TIMESTEP       0:06:00
 START CLOCKTIME     0:00:00
 STATISTIC           NONE

[OPTIONS]
 UNITS               LPS
 PRESSURE            METERS
 HEADLOSS            H-W
 UNBALANCED          STOP
 QUALITY             NONE
 DEMAND MULTIPLIER   1.0000
 EMITTER EXPONENT    0.5000
 VISCOSITY           1.000000
 DIFFUSIVITY         1.000000
 SPECIFIC GRAVITY    1.000000
 TRIALS              500
 ACCURACY            0.00000001
 TOLERANCE           0.01000000
 CHECKFREQ           2
 MAXCHECK            10
 DAMPLIMIT           0.00000000

[REPORT]
 PAGESIZE            0
 STATUS              NO
 SUMMARY             YES
 ENERGY              NO
 MESSAGES            YES
 NODES               NONE
 LINKS               NONE
 Elevation           NO
 Demand              PRECISION 2
 Head                PRECISION 2
 Pressure            PRECISION 2
 Quality             PRECISION 2
 Length              NO
 Diameter            NO
 Flow                PRECISION 2
 Velocity            PRECISION 2
 Headloss            PRECISION 2
 Quality             NO
 State               NO
 Setting             NO
 Reaction            NO

[COORDINATES]
 J1                                 1214.146449     247.840578
 J2                                 1601.582238     266.804834
 J3                                 1067.910829    1121.598934
 J4                                  602.710227    1518.026333
 J5                                  189.528683    1578.482186
 J6                                 1243.343845     804.276549
 J7                                  996.908027     222.933553
 J8                                  421.588724     429.327653
 J9                                 1305.812198    1151.203909
 J10                                1415.125877    1486.323864
 J11                                 955.164635    1845.962587
 J12                                 867.893542    1486.903051
 J13                                 555.147712     683.870120
 J14                                1362.611573     118.121865
 J15                                1954.955014     168.892437
 J16                                1858.237105     681.501639
 J17                                1274.976383     998.733257
 J18                                 211.578054     328.797786
 J19                                1130.967018      14.800794
 J20                                 307.565294    1890.806440
 J21                                 688.375080    1102.270995
 J22                                 679.011971     135.875441
 J23                                 103.064614     513.634935
 J24                                 506.175656    2054.806429
 J25                                 632.570743     954.165733
 J26                                 824.118809     442.635163
 J27                                  53.188155    1890.408062
 J28                                 193.082137    1782.648897
 J29                                1123.525167     387.472014
 J30                                1647.592838    1515.983709
 J31                                1838.643252    1854.515387
 J32                                 911.776757     645.515710
 J33                                 207.969964     790.155945
 J34                                1816.810512     417.042793
 J35                                 498.762648     253.619667
 J36                                1345.408491     614.451200
 J37                                1265.089787    1794.322400
 J38                                1493.413148    1328.678492
 J39                                 522.141018    1339.728422
 J40                                1988.014524     748.225767
 J41                                2038.647737     571.527644
 J42                                1546.887279      58.208454
 J43                                 979.394928    1616.622004
 J44                                1074.977933    1965.063342
 J45                                1198.992895     655.539644
 J46                                2040.868940    1190.800248
 J47                                1799.279643    1258.634327
 J48                                 738.456063     635.572619
 J49                                  35.199544     197.092696
 J50                                2039.725986    1451.129712
 J51                                 405.900162    1441.925372
 J52                                 929.575631    1217.930484
 J53                                 132.160280     920.646122
 J54                                1933.416043    1003.462253
 J55                                 636.141307     506.375125
 J56                                1576.786755    1000.096923
 J57                                2027.905676    1799.083233
 J58                                 282.988197     541.530388
 J59                                1615.590048     562.622705
 J60                                1556.824674    1955.758760
 J61                                 817.174766     825.968909
 J62                                1837.486534      47.359242
 J63                                  58.465349    1723.797820
 J64                                 406.899491    1716.672046
 J65                                1755.250443    1094.561726
 J66                                1392.769397    1979.512800
 J67                                1463.421937     218.779407
 J68                                1452.320890     381.398499
 J69                                 880.656930      29.663234
 J70                                 391.666584      72.845433
 J71                                 783.297692    1244.518029
 J72                                 764.140432    1863.481301
 J73                                1645.239682    1661.952082
 J74                                 721.470072    2033.039533
 J75                                 318.166637    1108.188100
 J76                                 841.811732     263.694184
 J77                                 156.677309    1342.256728
 J78                                2007.556496    1993.307639
 J79                                 343.106535     908.403529
 J80                                 616.519318    1875.490827
 J81                                1221.487728    1577.807933
 J82                                1425.132607     851.732417
 J83                                1949.236557     347.006133
 J84                                1076.963648    1750.105956
 J85                                1103.527764    1420.665120
 J86                                 587.751872    1732.514396
 J87                                 733.336488       4.686348
 J88                                1705.101354     683.527643
 J89                                 517.095473    1119.908139
 J90                                1411.237385    1041.943133
 J91                                 194.577970       2.366418
 J92                                1496.617158    1754.996281
 J93                                 151.394905    1192.246354
 J94                                 947.523547    1006.649436
 J95                                1821.070258     826.128195
 J96                                1148.678544     927.113288
 J97                                1177.470365    1288.130032
 J98                                 837.399444    1659.996207
 J99                                 498.315523     870.202333
 J100                               1778.666136    1997.270060
 J101                               1011.490385     779.896811
 J102                                  5.808246     383.609290
 J103                                397.926444    1234.862768
 J104                                 75.785475     660.099146
 R1                                   53.064614     463.634935
 R2                                  293.106535     858.403529

[VERTICES]

[END]
