[TITLE]

[JUNCTIONS]
 J1                                   13.5390
 J2                                    6.5703
 J3                                    5.2905
 J4                                   16.1278
 J5                                    4.0426
 J6                                   13.7032
 J7                                   16.4150
 J8                                   18.3359
 J9                                   22.1230
 J10                                   1.3357
 J11                                  11.0972
 J12                                  15.8301
 J13                                   9.3739
 J14                                  20.3661
 J15                                  14.2606
 J16                                  10.4153
 J17                                  14.8615
 J18                                  25.2085
 J19                                  12.0053
 J20                                  10.9481
 J21                                  16.4308
 J22                                   9.4786
 J23                                   9.8662
 J24                                  23.0984
 J25                                   6.6361
 J26                                  12.2576
 J27                                  22.9905
 J28                                   0.0000
 J29                                  17.6982
 J30                                  25.3018
 J31                                   9.8518
 J32                                  10.8469
 J33                                  23.9387
 J34                                  18.9832
 J35                                  16.3479

[RESERVOIRS]
 R1                                   91.9362                                
 R2                                   92.8037                                

[TANKS]

[PIPES]
 PS1                             R1                              J9                                   50.0000     800.0000     140.0000       0.0000       
 PS2                             R2                              J27                                  50.0000     800.0000     140.0000       0.0000       
 P1                              J1                              J4                                  357.2288      80.0000     135.9213       0.0000       
 P2                              J1                              J16                                 474.5054     100.0000     132.7921       0.0000       
 P3                              J1                              J27                                 380.0226      80.0000     132.7937       0.0000       
 P4                              J2                              J3                                  497.8735      80.0000     122.2713       0.0000       
 P5                              J2                              J7                                  526.5118      80.0000     122.8585       0.0000       
 P6                              J2                              J17                                 583.6082      80.0000     117.1732       0.0000       
 P7                              J2                              J19                                 612.5618      80.0000     135.2167       0.0000       
 P8                              J2                              J26                                 684.2242      80.0000     122.3304       0.0000       
 P9                              J2                              J35                                 684.3273      80.0000     129.9165       0.0000       
 P10                             J3                              J10                                 376.9342      80.0000     126.3150       0.0000       
 P11                             J3                              J19                                 441.7431      80.0000     135.6550       0.0000       
 P12                             J3                              J22                                 591.0767     100.0000     138.2005       0.0000       
 P13                             J4                              J18                                 622.4133      80.0000     111.7047       0.0000       
 P14                             J5                              J9                                  729.1746      80.0000     131.4416       0.0000       
 P15                             J5                              J13                                 648.9010     150.0000     138.3540       0.0000       
 P16                             J5                              J19                                 796.8448      80.0000     132.3557       0.0000       
 P17                             J5                              J22                                 422.8990     100.0000     113.4858       0.0000       
 P18                             J6                              J7                                  465.4015      80.0000     133.2477       0.0000       
 P19                             J6                              J12                                 582.1874      80.0000     126.4146       0.0000       
 P20                             J6                              J20                                 367.4808     100.0000     131.4573       0.0000       
 P21                             J7                              J26                                 750.7232     100.0000     102.1453       0.0000       
 P22                             J7                              J35                                 436.1792      80.0000     113.9335       0.0000       
 P23                             J8                              J16                                 403.6900     150.0000     135.7074       0.0000       
 P24                             J8                              J33                                 403.6712     150.0000     108.8380       0.0000       
 P25                             J9                              J13                                 452.6839      80.0000     105.0206       0.0000       
 P26                             J9                              J30                                 520.5890      80.0000     135.7350       0.0000       
 P27                             J10                             J17                                 741.8726      80.0000     116.2791       0.0000       
 P28                             J10                             J28                                 508.2436      80.0000     100.9338       0.0000       
 P29                             J11                             J15                                 656.3198      80.0000     131.2026       0.0000       
 P30                             J11                             J19                                 718.9570      80.0000     134.9226       0.0000       
 P31                             J11                             J25                                 428.5528     200.0000     107.8077       0.0000       
 P32                             J11                             J26                                 660.3462     150.0000     130.4432       0.0000       
 P33                             J11                             J29                                 745.5037      80.0000     104.1501       0.0000       
 P34                             J12                             J21                                 459.8703      80.0000     110.6032       0.0000       
 P35                             J12                             J24                                 346.2410      80.0000     108.7403       0.0000       
 P36                             J13                             J25                                 379.9809     200.0000     134.3459       0.0000       
 P37                             J13                             J30                                 517.2996     250.0000     119.3097       0.0000       
 P38                             J14                             J15                                 436.3845      80.0000     135.3274       0.0000       
 P39                             J14                             J16                                 631.4491      80.0000     130.8020       0.0000       
 P40                             J14                             J27                                 349.3182      80.0000     136.5704       0.0000       
 P41                             J14                             J34                                 368.7086      80.0000     122.3327       0.0000       
 P42                             J15                             J16                                 579.5557      80.0000     110.9653       0.0000       
 P43                             J15                             J29                                 467.0643      80.0000     117.1249       0.0000       
 P44                             J17                             J35                                 463.9392      80.0000     123.8699       0.0000       
 P45                             J18                             J21                                 661.5405      80.0000     105.8135       0.0000       
 P46                             J18                             J27                                 415.7298      80.0000     110.4677       0.0000       
 P47                             J19                             J22                                 745.8408      80.0000     122.2809       0.0000       
 P48                             J19                             J26                                 463.6076      80.0000     130.7001       0.0000       
 P49                             J20                             J26                                 418.5048     125.0000     138.1814       0.0000       
 P50                             J20                             J29                                 365.9149      80.0000     100.7487       0.0000       
 P51                             J21                             J27                                 790.7534      80.0000     121.0999       0.0000       
 P52                             J21                             J34                                 614.4199      80.0000     100.0414       0.0000       
 P53                             J23                             J25                                 427.4495      80.0000     137.9642       0.0000       
 P54                             J23                             J33                                 440.3959      80.0000     101.0642       0.0000       
 P55                             J24                             J31                                 629.4836      80.0000     108.5308       0.0000       
 P56                             J29                             J34                                 356.0776      80.0000     128.4942       0.0000       
 P57                             J30                             J33                                 542.1848     200.0000     136.0735       0.0000       
 P58                             J31                             J32                                 701.1963      80.0000     113.4040       0.0000       
 P59                             J32                             J35                                 431.0645      80.0000     115.9631       0.0000       

[PUMPS]

[VALVES]

[DEMANDS]
 J1                                    1.279267                                
 J2                                    0.842466                                
 J3                                    0.710967                                
 J4                                    1.699310                                
 J5                                    0.798493                                
 J6                                    2.895136                                
 J7                                    1.951206                                
 J8                                    1.715728                                
 J9                                    1.616823                                
 J10                                   1.891584                                
 J11                                   3.784269                                
 J12                                   0.770881                                
 J13                                   2.699876                                
 J14                                   0.717436                                
 J15                                   1.262876                                
 J16                                   0.944074                                
 J17                                   1.607370                                
 J18                                   1.452860                                
 J19                                   1.160839                                
 J20                                   1.915309                                
 J21                                   1.809126                                
 J22                                   0.949757                                
 J23                                   2.296513                                
 J24                                   0.881651                                
 J25                                   2.511252                                
 J26                                   0.987953                                
 J27                                   1.265037                                
 J28                                   1.740398                                
 J29                                   1.913025                                
 J30                                   1.891172                                
 J31                                   0.984697                                
 J32                                   0.773808                                
 J33                                   1.311402                                
 J34                                   0.676918                                
 J35                                   0.992067                                

[EMITTERS]

[STATUS]

[PATTERNS]

[CURVES]

[CONTROLS]

[RULES]

[QUALITY]

[SOURCES]

[MIXING]

[REACTIONS]
 ORDER  BULK            1.00
 ORDER  WALL            1
 ORDER  TANK            1.00
 GLOBAL BULK            0.000000
 GLOBAL WALL            0.000000

[ENERGY]
 GLOBAL EFFIC        75.0000
 DEMAND CHARGE       0.0000

[TIMES]
 DURATION            0:00:00
 HYDRAULIC TIMESTEP  1:00:00
 QUALITY TIMESTEP    0:06:00
 REPORT TIMESTEP     1:00:00
 REPORT START        0:00:00
 PATTERN TIMESTEP    1:00:00
 PATTERN START       0:00:00
 RULE TIMESTEP       0:06:00
 START CLOCKTIME     0:00:00
 STATISTIC           NONE

[OPTIONS]
 UNITS               LPS
 PRESSURE            METERS
 HEADLOSS            H-W
 UNBALANCED          STOP
 QUALITY             NONE
 DEMAND MULTIPLIER   1.0000
 EMITTER EXPONENT    0.5000
 VISCOSITY           1.000000
 DIFFUSIVITY         1.000000
 SPECIFIC GRAVITY    1.000000
 TRIALS              500
 ACCURACY            0.00000001
 TOLERANCE           0.01000000
 CHECKFREQ           2
 MAXCHECK            10
 DAMPLIMIT           0.00000000

[REPORT]
 PAGESIZE            0
 STATUS              NO
 SUMMARY             YES
 ENERGY              NO
 MESSAGES            YES
 NODES               NONE
 LINKS               NONE
 Elevation           NO
 Demand              PRECISION 2
 Head                PRECISION 2
 Pressure            PRECISION 2
 Quality             PRECISION 2
 Length              NO
 Diameter            NO
 Flow                PRECISION 2
 Velocity            PRECISION 2
 Headloss            PRECISION 2
 Quality             NO
 State               NO
 Setting             NO
 Reaction            NO

[COORDINATES]
 J1                                  520.662266    2290.103619
 J2                                 1492.682108     544.567073
 J3                                 1949.713868     651.644918
 J4                                  229.027250    2412.134236
 J5                                 2307.159340    1377.706525
 J6                                  789.847903     813.979099
 J7                                 1049.567070     463.365675
 J8                                 1272.489879    2457.528452
 J9                                 2435.646391    2048.186955
 J10                                2125.055103     388.345664
 J11                                1532.916962    1603.431077
 J12                                 366.633559    1091.884415
 J13                                2048.817784    1871.805118
 J14                                 700.662195    1844.014864
 J15                                1053.561375    1842.029450
 J16                                 912.071556    2358.972035
 J17                                1548.071019      39.519061
 J18                                  21.065568    1944.337812
 J19                                1738.425831     988.593906
 J20                                 993.133037    1097.456565
 J21                                  79.532591    1411.813292
 J22                                2350.576879    1026.032978
 J23                                1467.883104    2134.193834
 J24                                 203.936024     816.564881
 J25                                1739.746443    1881.658603
 J26                                1362.315027    1085.577690
 J27                                 406.496814    1957.147938
 J28                                2399.396440      48.640877
 J29                                 944.738258    1421.777061
 J30                                2079.384687    2329.476877
 J31                                 134.869595     300.292134
 J32                                 738.386567      72.942133
 J33                                1637.222799    2443.845373
 J34                                 651.393982    1532.658655
 J35                                1117.721162     112.468030
 R1                                 2385.646391    1998.186955
 R2                                  356.496814    1907.147938

[VERTICES]

[END]
