[TITLE]

[JUNCTIONS]
 J1                                    4.9806
 J2                                    1.8181
 J3                                    3.4283
 J4                                    4.3197
 J5                                    2.0513
 J6                                    6.5524
 J7                                    5.7088
 J8                                    2.9613
 J9                                    3.9441
 J10                                   3.9367
 J11                                   3.9078
 J12                                   2.2491
 J13                                   2.1047
 J14                                   3.8807
 J15                                   3.1934
 J16                                   0.1366
 J17                                   2.2612
 J18                                   5.0324
 J19                                   1.7767
 J20                                   0.8937
 J21                                   3.6885
 J22                                   1.6198
 J23                                   1.1291
 J24                                   3.7900
 J25                                   4.1862
 J26                                   3.5283
 J27                                   3.7649
 J28                                   6.5779
 J29                                   5.4574
 J30                                   3.0379
 J31                                   2.2241
 J32                                   1.0090
 J33                                   2.3709
 J34                                   3.0569
 J35                                   3.4129
 J36                                   3.4025
 J37                                   4.1958
 J38                                   0.3401
 J39                                   3.1314
 J40                                   2.6235
 J41                                   0.0000
 J42                                   0.8379

[RESERVOIRS]
 R1                                   47.6959                                

[TANKS]

[PIPES]
 PS1                             R1                              J7                                   50.0000     800.0000     140.0000       0.0000       
 P1                              J1                              J14                                 450.7108     100.0000     105.5532       0.0000       
 P2                              J1                              J26                                 786.9104      80.0000     133.2949       0.0000       
 P3                              J2                              J8                                  564.2159      80.0000     122.3312       0.0000       
 P4                              J2                              J14                                 751.3989      80.0000     110.1932       0.0000       
 P5                              J2                              J19                                 538.7603     125.0000     121.7264       0.0000       
 P6                              J2                              J20                                 740.3825      80.0000     101.8016       0.0000       
 P7                              J3                              J5                                  637.8793     300.0000     125.6165       0.0000       
 P8                              J3                              J6                                  740.8427      80.0000     100.9743       0.0000       
 P9                              J3                              J13                                 542.6399     125.0000     122.5328       0.0000       
 P10                             J3                              J28                                 576.2772     350.0000     102.3497       0.0000       
 P11                             J3                              J34                                 609.0427     125.0000     126.9464       0.0000       
 P12                             J4                              J6                                  534.2830      80.0000     117.3521       0.0000       
 P13                             J4                              J7                                  577.6232      80.0000     134.5321       0.0000       
 P14                             J4                              J26                                 643.4522      80.0000     118.9203       0.0000       
 P15                             J5                              J13                                 618.2381      80.0000     115.7435       0.0000       
 P16                             J5                              J18                                 511.1615      80.0000     131.0380       0.0000       
 P17                             J5                              J27                                 523.1628     250.0000     101.6827       0.0000       
 P18                             J5                              J37                                 582.0708      80.0000     111.3243       0.0000       
 P19                             J6                              J28                                 443.3873     100.0000     135.5501       0.0000       
 P20                             J7                              J25                                 414.6879     350.0000     116.9740       0.0000       
 P21                             J7                              J26                                 705.5876     100.0000     110.9795       0.0000       
 P22                             J7                              J28                                 504.2368     350.0000     136.1982       0.0000       
 P23                             J8                              J24                                 469.9833      80.0000     113.6489       0.0000       
 P24                             J8                              J36                                 450.5783      80.0000     122.2448       0.0000       
 P25                             J8                              J39                                 852.7588      80.0000     126.5694       0.0000       
 P26                             J9                              J22                                1094.0750      80.0000     116.2576       0.0000       
 P27                             J9                              J29                                1001.4402      80.0000     117.2831       0.0000       
 P28                             J9                              J35                                1105.2948      80.0000     114.7072       0.0000       
 P29                             J9                              J37                                 689.5039      80.0000     113.3851       0.0000       
 P30                             J10                             J11                                 492.0766      80.0000     138.1651       0.0000       
 P31                             J10                             J32                                 696.4717     100.0000     117.1268       0.0000       
 P32                             J10                             J39                                 472.9594     150.0000     103.5751       0.0000       
 P33                             J11                             J32                                 548.7000      80.0000     106.1474       0.0000       
 P34                             J12                             J16                                1036.6524      80.0000     124.9188       0.0000       
 P35                             J12                             J24                                 585.4261     150.0000     118.8029       0.0000       
 P36                             J12                             J40                                 418.6975     125.0000     129.6125       0.0000       
 P37                             J13                             J34                                 390.2900      80.0000     119.2413       0.0000       
 P38                             J13                             J37                                 378.1853     125.0000     129.0219       0.0000       
 P39                             J14                             J25                                 556.9907     250.0000     129.3658       0.0000       
 P40                             J14                             J31                                 619.2703     200.0000     113.2711       0.0000       
 P41                             J15                             J18                                 834.0334      80.0000     117.5678       0.0000       
 P42                             J15                             J22                                 714.1668     150.0000     128.0400       0.0000       
 P43                             J15                             J23                                 589.3812     200.0000     102.2203       0.0000       
 P44                             J15                             J27                                 781.8267     250.0000     109.0958       0.0000       
 P45                             J16                             J17                                 674.2938      80.0000     113.0836       0.0000       
 P46                             J16                             J23                                 423.4762     200.0000     130.6183       0.0000       
 P47                             J16                             J30                                 633.9696      80.0000     135.2353       0.0000       
 P48                             J16                             J38                                 953.9189     125.0000     128.8905       0.0000       
 P49                             J17                             J30                                 472.1302      80.0000     118.9027       0.0000       
 P50                             J17                             J42                                 457.1904      80.0000     139.6642       0.0000       
 P51                             J18                             J27                                 646.2260      80.0000     134.9765       0.0000       
 P52                             J18                             J37                                 496.7480      80.0000     111.0993       0.0000       
 P53                             J19                             J25                                 510.2825     250.0000     137.7419       0.0000       
 P54                             J19                             J36                                 738.5001     200.0000     110.2716       0.0000       
 P55                             J20                             J31                                 480.5271     200.0000     132.7513       0.0000       
 P56                             J20                             J39                                 396.9159     150.0000     108.1646       0.0000       
 P57                             J21                             J26                                 605.8392      80.0000     132.2163       0.0000       
 P58                             J22                             J33                                 473.1580      80.0000     121.7666       0.0000       
 P59                             J23                             J42                                 787.6139      80.0000     123.4651       0.0000       
 P60                             J24                             J36                                 456.3559     150.0000     117.0919       0.0000       
 P61                             J27                             J36                                 584.2438     100.0000     138.9279       0.0000       
 P62                             J29                             J35                                 426.3592      80.0000     129.8815       0.0000       
 P63                             J32                             J41                                 495.7412      80.0000     118.1133       0.0000       
 P64                             J33                             J42                                 486.4650      80.0000     102.4354       0.0000       
 P65                             J34                             J35                                 520.9826      80.0000     112.5136       0.0000       
 P66                             J38                             J41                                 482.7408      80.0000     137.4245       0.0000       
 P67                             J40                             J41                                 421.9052     100.0000     107.2691       0.0000       

[PUMPS]

[VALVES]

[DEMANDS]
 J1                                    4.317722                                
 J2                                    4.878714                                
 J3                                    8.158371                                
 J4                                    2.251651                                
 J5                                    3.396154                                
 J6                                    2.261349                                
 J7                                    4.404006                                
 J8                                    3.530456                                
 J9                                    1.559015                                
 J10                                   3.149044                                
 J11                                   3.805711                                
 J12                                   3.911039                                
 J13                                   1.704828                                
 J14                                   6.202644                                
 J15                                   4.664056                                
 J16                                   2.859977                                
 J17                                   1.962560                                
 J18                                   1.296187                                
 J19                                   1.919301                                
 J20                                   2.786351                                
 J21                                   2.141493                                
 J22                                   7.593666                                
 J23                                   3.097893                                
 J24                                   2.230652                                
 J25                                   2.580286                                
 J26                                   2.621552                                
 J27                                   2.229015                                
 J28                                   4.506818                                
 J29                                   1.552178                                
 J30                                   3.530199                                
 J31                                   1.945317                                
 J32                                   4.308454                                
 J33                                   2.686122                                
 J34                                   3.259041                                
 J35                                   1.710519                                
 J36                                   1.289424                                
 J37                                   6.096072                                
 J38                                   6.310266                                
 J39                                   2.247963                                
 J40                                   3.143781                                
 J41                                   4.496257                                
 J42                                   2.071329                                

[EMITTERS]

[STATUS]

[PATTERNS]

[CURVES]

[CONTROLS]

[RULES]

[QUALITY]

[SOURCES]

[MIXING]

[REACTIONS]
 ORDER  BULK            1.00
 ORDER  WALL            1
 ORDER  TANK            1.00
 GLOBAL BULK            0.000000
 GLOBAL WALL            0.000000

[ENERGY]
 GLOBAL EFFIC        75.0000
 DEMAND CHARGE       0.0000

[TIMES]
 DURATION            0:00:00
 HYDRAULIC TIMESTEP  1:00:00
 QUALITY TIMESTEP    0:06:00
 REPORT TIMESTEP     1:00:00
 REPORT START        0:00:00
 PATTERN TIMESTEP    1:00:00
 PATTERN START       0:00:00
 RULE TIMESTEP       0:06:00
 START CLOCKTIME     0:00:00
 STATISTIC           NONE

[OPTIONS]
 UNITS               LPS
 PRESSURE            METERS
 HEADLOSS            H-W
 UNBALANCED          STOP
 QUALITY             NONE
 DEMAND MULTIPLIER   1.0000
 EMITTER EXPONENT    0.5000
 VISCOSITY           1.000000
 DIFFUSIVITY         1.000000
 SPECIFIC GRAVITY    1.000000
 TRIALS              500
 ACCURACY            0.00000001
 TOLERANCE           0.01000000
 CHECKFREQ           2
 MAXCHECK            10
 DAMPLIMIT           0.00000000

[REPORT]
 PAGESIZE            0
 STATUS              NO
 SUMMARY             YES
 ENERGY              NO
 MESSAGES            YES
 NODES               NONE
 LINKS               NONE
 Elevation           NO
 Demand              PRECISION 2
 Head                PRECISION 2
 Pressure            PRECISION 2
 Quality             PRECISION 2
 Length              NO
 Diameter            NO
 Flow                PRECISION 2
 Velocity            PRECISION 2
 Headloss            PRECISION 2
 Quality             NO
 State               NO
 Setting             NO
 Reaction            NO

[COORDINATES]
 J1                                 2261.860522    3046.851826
 J2                                 1527.352539    2355.029863
 J3                                 2613.784686    1341.259392
 J4                                 2981.970121    2202.186616
 J5                                 2053.866697    1169.891277
 J6                                 3047.698554    1772.395241
 J7                                 2443.143278    2232.058660
 J8                                 1159.476257    2044.201592
 J9                                 2274.024472      68.997968
 J10                                 493.720664    3051.931200
 J11                                  56.422892    3153.107943
 J12                                 536.395993    1969.503634
 J13                                2531.794124     904.833413
 J14                                1977.678016    2801.093746
 J15                                1175.986684     843.534978
 J16                                 307.936350    1015.841028
 J17                                 398.747369     399.821946
 J18                                1879.171715     799.484314
 J19                                1818.678150    2003.820177
 J20                                1177.776065    2952.482750
 J21                                3152.813999    3094.784788
 J22                                1363.579741     194.359612
 J23                                 697.949001    1081.840311
 J24                                 925.343221    1704.317302
 J25                                2102.382759    2326.362409
 J26                                2827.645364    2705.796365
 J27                                1617.885899    1292.537189
 J28                                2695.392223    1842.147658
 J29                                3112.674722     144.779808
 J30                                  10.555676     523.356196
 J31                                1589.205271    3127.880701
 J32                                  37.162153    2693.932662
 J33                                 944.681545      46.123346
 J34                                2882.296631     931.230103
 J35                                3037.447738     540.431156
 J36                                1308.368620    1664.821551
 J37                                2259.258754     682.045114
 J38                                  32.018788    1853.219420
 J39                                 853.485704    2791.257853
 J40                                 474.399015    2344.467783
 J41                                  95.201874    2253.331175
 J42                                 779.167593     414.081937
 R1                                 2393.143278    2182.058660

[VERTICES]

[END]
