[TITLE]

[JUNCTIONS]
 J1                                   21.5529
 J2                                   33.6062
 J3                                   19.8190
 J4                                   26.7107
 J5                                    3.9396
 J6                                   24.7331
 J7                                   16.9644
 J8                                   27.5624
 J9                                   27.7528
 J10                                  21.5867
 J11                                  15.7663
 J12                                  31.6172
 J13                                  19.7229
 J14                                  30.5593
 J15                                  12.4012
 J16                                  10.8131
 J17                                  39.9518
 J18                                  32.8643
 J19                                  24.0304
 J20                                  20.2020
 J21                                  33.9405
 J22                                  35.4588
 J23                                  31.6797
 J24                                  12.1832
 J25                                   6.4568
 J26                                  31.7405
 J27                                  32.9716
 J28                                  31.2503
 J29                                  14.3501
 J30                                  28.1392
 J31                                  17.0526
 J32                                   2.4148
 J33                                  20.7083
 J34                                  28.8823
 J35                                  12.2519
 J36                                  36.3524
 J37                                  26.0116
 J38                                  22.1319
 J39                                  34.0566
 J40                                  15.4404
 J41                                  31.5276
 J42                                   7.8010
 J43                                  17.5298
 J44                                  21.1407
 J45                                   0.1265
 J46                                   0.9694
 J47                                  21.4960
 J48                                  23.4927
 J49                                  28.8557
 J50                                  25.5320
 J51                                  17.3191
 J52                                  30.4434
 J53                                  29.3425
 J54                                  11.0810
 J55                                  18.2420
 J56                                   7.1200
 J57                                   6.8671
 J58                                  20.5496
 J59                                  33.8849
 J60                                   8.0021
 J61                                  15.9277
 J62                                   8.2225
 J63                                  31.4346
 J64                                   4.6628
 J65                                  14.9202
 J66                                  27.1254
 J67                                  15.5450
 J68                                  10.7292
 J69                                  24.4559
 J70                                   0.0000
 J71                                  22.0728
 J72                                  29.2305
 J73                                   2.9488
 J74                                  24.7373
 J75                                  26.6444
 J76                                  27.8644
 J77                                  13.2915
 J78                                   9.1714
 J79                                  18.7865
 J80                                  15.5751
 J81                                   8.0094
 J82                                  19.3847
 J83                                  12.7783
 J84                                  30.1039
 J85                                  22.2965
 J86                                  25.2147
 J87                                  29.9523
 J88                                  29.7539
 J89                                   8.8718
 J90                                  19.4022
 J91                                  29.4330
 J92                                  32.2916
 J93                                  28.0955
 J94                                  23.1916
 J95                                  28.5084
 J96                                  19.5186
 J97                                  26.7881
 J98                                  22.0658
 J99                                  28.0721
 J100                                 24.5875
 J101                                 18.9834
 J102                                 32.3601
 J103                                 24.5977
 J104                                  2.5613
 J105                                 15.2420
 J106                                 21.9545
 J107                                 10.0233
 J108                                 24.8195
 J109                                 25.8530
 J110                                 41.4564
 J111                                 29.0189
 J112                                  1.0361
 J113                                 24.7265
 J114                                 26.9452
 J115                                 21.5292
 J116                                 20.7899

[RESERVOIRS]
 R1                                   98.9633                                

[TANKS]

[PIPES]
 PS1                             R1                              J36                                  50.0000     800.0000     140.0000       0.0000       
 P1                              J1                              J23                                 373.3979      80.0000     125.0992       0.0000       
 P2                              J1                              J43                                 316.7536      80.0000     116.9534       0.0000       
 P3                              J1                              J49                                 277.1058      80.0000     104.9156       0.0000       
 P4                              J1                              J51                                 494.6637      80.0000     101.8221       0.0000       
 P5                              J2                              J3                                  557.9573      80.0000     132.7379       0.0000       
 P6                              J2                              J4                                  406.5782      80.0000     113.7022       0.0000       
 P7                              J2                              J108                                313.5521      80.0000     117.6224       0.0000       
 P8                              J2                              J114                                510.5466      80.0000     113.1262       0.0000       
 P9                              J3                              J37                                 269.6957      80.0000     133.4094       0.0000       
 P10                             J3                              J56                                 358.3513      80.0000     109.6323       0.0000       
 P11                             J3                              J78                                 514.5587      80.0000     102.6678       0.0000       
 P12                             J3                              J114                                540.9287      80.0000     101.8849       0.0000       
 P13                             J4                              J32                                 451.3878      80.0000     125.6846       0.0000       
 P14                             J4                              J42                                 390.8800      80.0000     120.6497       0.0000       
 P15                             J4                              J102                                460.9918      80.0000     133.2228       0.0000       
 P16                             J5                              J24                                 385.0761      80.0000     119.7320       0.0000       
 P17                             J5                              J57                                 377.5557      80.0000     100.9199       0.0000       
 P18                             J5                              J89                                 271.0535      80.0000     137.2344       0.0000       
 P19                             J6                              J31                                 431.9624      80.0000     116.2728       0.0000       
 P20                             J6                              J65                                 317.0972     100.0000     115.0207       0.0000       
 P21                             J6                              J87                                 667.9193      80.0000     139.4484       0.0000       
 P22                             J6                              J91                                 379.4744     100.0000     112.0488       0.0000       
 P23                             J7                              J61                                 350.7325      80.0000     135.5593       0.0000       
 P24                             J7                              J86                                 371.0246     100.0000     136.7207       0.0000       
 P25                             J7                              J96                                 272.2168     100.0000     112.2597       0.0000       
 P26                             J8                              J12                                 365.0301     100.0000     120.9861       0.0000       
 P27                             J8                              J38                                 304.3256     100.0000     104.7924       0.0000       
 P28                             J8                              J63                                 275.2128      80.0000     121.6274       0.0000       
 P29                             J8                              J109                                483.7520      80.0000     125.2928       0.0000       
 P30                             J9                              J38                                 384.8828     125.0000     114.5055       0.0000       
 P31                             J9                              J39                                 348.5499     125.0000     138.5383       0.0000       
 P32                             J9                              J106                                541.0574      80.0000     133.4677       0.0000       
 P33                             J10                             J47                                 641.4459     125.0000     108.5859       0.0000       
 P34                             J10                             J48                                 593.3166     100.0000     130.9268       0.0000       
 P35                             J10                             J106                                296.3953      80.0000     127.8320       0.0000       
 P36                             J11                             J79                                 389.8039      80.0000     108.3267       0.0000       
 P37                             J11                             J85                                 317.2683      80.0000     134.1862       0.0000       
 P38                             J12                             J63                                 453.6857      80.0000     112.9983       0.0000       
 P39                             J12                             J83                                 624.2860      80.0000     104.2650       0.0000       
 P40                             J12                             J113                                426.6281      80.0000     135.3678       0.0000       
 P41                             J13                             J20                                 455.8899      80.0000     114.0509       0.0000       
 P42                             J13                             J93                                 452.0393      80.0000     116.5117       0.0000       
 P43                             J14                             J41                                 499.2505      80.0000     133.0307       0.0000       
 P44                             J14                             J79                                 428.6220      80.0000     122.4502       0.0000       
 P45                             J14                             J92                                 297.9992      80.0000     107.0123       0.0000       
 P46                             J15                             J31                                 365.6712      80.0000     135.9405       0.0000       
 P47                             J15                             J44                                 371.7189      80.0000     101.9737       0.0000       
 P48                             J15                             J65                                 286.6135      80.0000     104.9911       0.0000       
 P49                             J15                             J74                                 521.5558      80.0000     131.9106       0.0000       
 P50                             J16                             J29                                 341.2974      80.0000     128.1791       0.0000       
 P51                             J16                             J74                                 583.6047      80.0000     106.2953       0.0000       
 P52                             J16                             J102                                528.5742      80.0000     137.9532       0.0000       
 P53                             J16                             J114                                529.7614      80.0000     132.2395       0.0000       
 P54                             J17                             J21                                 407.4436      80.0000     100.1671       0.0000       
 P55                             J17                             J39                                 544.4144     125.0000     132.0365       0.0000       
 P56                             J17                             J110                                295.9517     125.0000     119.6092       0.0000       
 P57                             J18                             J26                                 526.9113      80.0000     105.4725       0.0000       
 P58                             J18                             J27                                 426.5877      80.0000     108.3083       0.0000       
 P59                             J18                             J71                                 387.7013      80.0000     104.7954       0.0000       
 P60                             J18                             J100                                486.1891      80.0000     107.2516       0.0000       
 P61                             J18                             J103                                527.4712      80.0000     122.3505       0.0000       
 P62                             J19                             J77                                 281.0295      80.0000     122.7346       0.0000       
 P63                             J19                             J83                                 351.0684      80.0000     123.6050       0.0000       
 P64                             J20                             J95                                 331.0141      80.0000     116.8598       0.0000       
 P65                             J22                             J49                                 356.3079      80.0000     119.0383       0.0000       
 P66                             J22                             J92                                 322.9461      80.0000     127.3144       0.0000       
 P67                             J23                             J28                                 559.8259      80.0000     119.2505       0.0000       
 P68                             J23                             J41                                 408.5365      80.0000     136.9408       0.0000       
 P69                             J23                             J49                                 370.0449      80.0000     109.7621       0.0000       
 P70                             J24                             J66                                 345.6297      80.0000     121.7329       0.0000       
 P71                             J24                             J107                                362.8835      80.0000     120.9215       0.0000       
 P72                             J25                             J45                                 321.8258      80.0000     130.6107       0.0000       
 P73                             J25                             J54                                 547.5624      80.0000     104.0524       0.0000       
 P74                             J25                             J70                                 313.1850      80.0000     106.6071       0.0000       
 P75                             J25                             J81                                 484.4492      80.0000     135.1214       0.0000       
 P76                             J25                             J115                                315.3484      80.0000     122.4227       0.0000       
 P77                             J26                             J93                                 550.8031      80.0000     106.7957       0.0000       
 P78                             J26                             J98                                 394.3447      80.0000     129.6698       0.0000       
 P79                             J26                             J100                                347.6308      80.0000     116.4694       0.0000       
 P80                             J26                             J103                                314.5045      80.0000     132.4348       0.0000       
 P81                             J27                             J44                                 509.0042      80.0000     138.4305       0.0000       
 P82                             J27                             J59                                 417.9334      80.0000     139.3438       0.0000       
 P83                             J27                             J74                                 280.9375      80.0000     131.1401       0.0000       
 P84                             J27                             J88                                 324.0996      80.0000     124.2581       0.0000       
 P85                             J28                             J41                                 412.0703      80.0000     120.5478       0.0000       
 P86                             J28                             J99                                 293.8806      80.0000     108.0435       0.0000       
 P87                             J29                             J83                                 363.1086      80.0000     132.9816       0.0000       
 P88                             J29                             J113                                272.7119      80.0000     118.2683       0.0000       
 P89                             J30                             J52                                 356.3395     125.0000     131.1264       0.0000       
 P90                             J30                             J94                                 413.4446      80.0000     136.7137       0.0000       
 P91                             J30                             J96                                 389.0431     100.0000     106.4124       0.0000       
 P92                             J30                             J99                                 289.1075      80.0000     101.3599       0.0000       
 P93                             J31                             J76                                 350.1115      80.0000     137.7694       0.0000       
 P94                             J32                             J35                                 317.4965      80.0000     117.3385       0.0000       
 P95                             J32                             J42                                 324.7944      80.0000     106.3583       0.0000       
 P96                             J32                             J46                                 272.3306      80.0000     102.9143       0.0000       
 P97                             J33                             J52                                 419.7266     125.0000     127.5910       0.0000       
 P98                             J33                             J55                                 283.0814      80.0000     125.1403       0.0000       
 P99                             J33                             J82                                 395.5525      80.0000     124.9033       0.0000       
 P100                            J33                             J90                                 328.4702     150.0000     106.8610       0.0000       
 P101                            J34                             J66                                 417.8166      80.0000     101.3236       0.0000       
 P102                            J34                             J89                                 460.6360      80.0000     107.0886       0.0000       
 P103                            J34                             J97                                 418.8435      80.0000     104.5847       0.0000       
 P104                            J34                             J105                                459.2202      80.0000     100.2600       0.0000       
 P105                            J35                             J108                                299.6268      80.0000     120.8353       0.0000       
 P106                            J36                             J47                                 436.3903     200.0000     116.2018       0.0000       
 P107                            J36                             J110                                373.9925     200.0000     116.5070       0.0000       
 P108                            J38                             J106                                465.3376      80.0000     132.4424       0.0000       
 P109                            J38                             J109                                384.8484      80.0000     123.1403       0.0000       
 P110                            J40                             J44                                 324.2083      80.0000     134.3647       0.0000       
 P111                            J40                             J65                                 369.6582      80.0000     124.9741       0.0000       
 P112                            J40                             J67                                 446.1306      80.0000     123.1669       0.0000       
 P113                            J40                             J103                                294.9901      80.0000     103.7232       0.0000       
 P114                            J41                             J79                                 433.3573      80.0000     117.8864       0.0000       
 P115                            J42                             J46                                 394.8659      80.0000     113.0695       0.0000       
 P116                            J42                             J112                                282.7697      80.0000     131.1437       0.0000       
 P117                            J43                             J58                                 388.3857      80.0000     116.2635       0.0000       
 P118                            J44                             J74                                 453.9445      80.0000     118.7663       0.0000       
 P119                            J45                             J60                                 431.6331      80.0000     124.9918       0.0000       
 P120                            J45                             J70                                 391.2926      80.0000     121.2032       0.0000       
 P121                            J45                             J104                                357.8299      80.0000     131.0987       0.0000       
 P122                            J46                             J81                                 420.3173      80.0000     115.1907       0.0000       
 P123                            J47                             J69                                 318.0551     150.0000     127.7302       0.0000       
 P124                            J48                             J90                                 535.1939      80.0000     103.7179       0.0000       
 P125                            J48                             J91                                 270.8045     100.0000     114.0397       0.0000       
 P126                            J50                             J54                                 340.8467      80.0000     129.1096       0.0000       
 P127                            J50                             J115                                309.7667      80.0000     104.3871       0.0000       
 P128                            J51                             J58                                 403.0377      80.0000     126.8671       0.0000       
 P129                            J51                             J116                                285.8010      80.0000     126.9657       0.0000       
 P130                            J52                             J87                                 376.4071      80.0000     129.1365       0.0000       
 P131                            J52                             J94                                 442.9542      80.0000     121.9925       0.0000       
 P132                            J53                             J66                                 302.4708      80.0000     128.7652       0.0000       
 P133                            J54                             J62                                 280.0487      80.0000     131.9641       0.0000       
 P134                            J55                             J82                                 286.5290      80.0000     109.6887       0.0000       
 P135                            J55                             J85                                 482.9667      80.0000     113.8015       0.0000       
 P136                            J56                             J77                                 438.3230      80.0000     137.3318       0.0000       
 P137                            J57                             J73                                 597.0796      80.0000     115.3803       0.0000       
 P138                            J57                             J101                                370.7709      80.0000     115.2195       0.0000       
 P139                            J59                             J88                                 312.6013      80.0000     114.4536       0.0000       
 P140                            J59                             J102                                329.1937      80.0000     100.7845       0.0000       
 P141                            J60                             J70                                 294.4843      80.0000     106.2273       0.0000       
 P142                            J60                             J80                                 355.2262      80.0000     124.5191       0.0000       
 P143                            J60                             J88                                 409.9550      80.0000     125.1642       0.0000       
 P144                            J61                             J67                                 381.4603      80.0000     136.9050       0.0000       
 P145                            J61                             J86                                 486.0923      80.0000     128.2781       0.0000       
 P146                            J61                             J98                                 341.0423      80.0000     111.7344       0.0000       
 P147                            J62                             J89                                 275.7769      80.0000     105.8414       0.0000       
 P148                            J64                             J107                                368.5491      80.0000     103.4260       0.0000       
 P149                            J67                             J94                                 319.1352      80.0000     133.0625       0.0000       
 P150                            J68                             J108                                304.8027      80.0000     135.0613       0.0000       
 P151                            J69                             J90                                 412.1274     150.0000     113.8362       0.0000       
 P152                            J70                             J112                                398.2631      80.0000     127.9890       0.0000       
 P153                            J71                             J88                                 482.4608      80.0000     138.4191       0.0000       
 P154                            J71                             J100                                436.2179      80.0000     129.9410       0.0000       
 P155                            J72                             J75                                 274.3576      80.0000     115.6910       0.0000       
 P156                            J72                             J76                                 351.3689      80.0000     132.3943       0.0000       
 P157                            J72                             J109                                294.4012      80.0000     118.4779       0.0000       
 P158                            J73                             J89                                 444.0684      80.0000     102.5455       0.0000       
 P159                            J73                             J100                                423.2070      80.0000     120.4409       0.0000       
 P160                            J73                             J104                                356.3723      80.0000     134.7261       0.0000       
 P161                            J75                             J91                                 290.2210      80.0000     100.6785       0.0000       
 P162                            J76                             J91                                 636.1859      80.0000     121.2077       0.0000       
 P163                            J76                             J113                                316.0675      80.0000     122.8414       0.0000       
 P164                            J78                             J83                                 338.3575      80.0000     113.1199       0.0000       
 P165                            J80                             J88                                 357.0878      80.0000     130.3956       0.0000       
 P166                            J80                             J112                                328.7098      80.0000     126.8464       0.0000       
 P167                            J81                             J112                                358.7829      80.0000     106.0901       0.0000       
 P168                            J84                             J86                                 269.1612     100.0000     121.6012       0.0000       
 P169                            J84                             J93                                 292.2138      80.0000     118.6125       0.0000       
 P170                            J84                             J111                                353.5709      80.0000     114.5078       0.0000       
 P171                            J86                             J98                                 409.0237      80.0000     107.0907       0.0000       
 P172                            J87                             J94                                 448.4507      80.0000     103.3374       0.0000       
 P173                            J93                             J101                                293.6041      80.0000     135.3125       0.0000       
 P174                            J95                             J111                                304.8840      80.0000     131.6925       0.0000       
 P175                            J95                             J116                                414.4106      80.0000     129.5716       0.0000       
 P176                            J96                             J99                                 266.5458      80.0000     109.3282       0.0000       
 P177                            J97                             J105                                406.6411      80.0000     137.8079       0.0000       
 P178                            J102                            J114                                286.3400      80.0000     120.7793       0.0000       
 P179                            J106                            J109                                392.9411      80.0000     114.6732       0.0000       
 P180                            J111                            J116                                366.2740      80.0000     109.9368       0.0000       

[PUMPS]

[VALVES]

[DEMANDS]
 J1                                    0.366519                                
 J2                                    0.362938                                
 J3                                    0.124775                                
 J4                                    0.311950                                
 J5                                    0.090658                                
 J6                                    0.075636                                
 J7                                    0.107119                                
 J8                                    0.334413                                
 J9                                    0.987436                                
 J10                                   1.380806                                
 J11                                   0.307734                                
 J12                                   0.290365                                
 J13                                   0.077386                                
 J14                                   0.559057                                
 J15                                   0.293266                                
 J16                                   0.322294                                
 J17                                   0.254348                                
 J18                                   0.058830                                
 J19                                   0.492803                                
 J20                                   0.223485                                
 J21                                   0.195234                                
 J22                                   0.140174                                
 J23                                   0.326041                                
 J24                                   0.144346                                
 J25                                   0.143184                                
 J26                                   0.255289                                
 J27                                   0.256602                                
 J28                                   0.017791                                
 J29                                   0.246707                                
 J30                                   0.155128                                
 J31                                   0.224704                                
 J32                                   0.098791                                
 J33                                   0.359357                                
 J34                                   0.319679                                
 J35                                   0.428715                                
 J36                                   0.150563                                
 J37                                   0.105863                                
 J38                                   0.469385                                
 J39                                   0.230387                                
 J40                                   0.127512                                
 J41                                   0.309915                                
 J42                                   1.046432                                
 J43                                   0.114263                                
 J44                                   0.083008                                
 J45                                   0.226353                                
 J46                                   0.322377                                
 J47                                   0.211152                                
 J48                                   0.062328                                
 J49                                   0.266550                                
 J50                                   0.158886                                
 J51                                   0.081428                                
 J52                                   0.282730                                
 J53                                   0.271769                                
 J54                                   1.056067                                
 J55                                   0.726319                                
 J56                                   0.804188                                
 J57                                   0.431377                                
 J58                                   0.141843                                
 J59                                   0.108118                                
 J60                                   0.573403                                
 J61                                   0.123503                                
 J62                                   0.651996                                
 J63                                   0.265288                                
 J64                                   0.385048                                
 J65                                   0.076685                                
 J66                                   0.044683                                
 J67                                   0.084769                                
 J68                                   0.542299                                
 J69                                   0.231636                                
 J70                                   0.259154                                
 J71                                   0.430294                                
 J72                                   0.539974                                
 J73                                   0.076011                                
 J74                                   0.274843                                
 J75                                   0.153545                                
 J76                                   1.103884                                
 J77                                   0.047139                                
 J78                                   0.204393                                
 J79                                   0.059191                                
 J80                                   0.168012                                
 J81                                   0.249468                                
 J82                                   0.522622                                
 J83                                   0.106764                                
 J84                                   0.387886                                
 J85                                   1.002277                                
 J86                                   0.131650                                
 J87                                   0.530026                                
 J88                                   0.052216                                
 J89                                   0.077262                                
 J90                                   0.213585                                
 J91                                   0.171213                                
 J92                                   0.381383                                
 J93                                   2.766625                                
 J94                                   0.659086                                
 J95                                   0.055280                                
 J96                                   0.213595                                
 J97                                   0.130681                                
 J98                                   0.742111                                
 J99                                   0.420180                                
 J100                                  0.020871                                
 J101                                  0.435730                                
 J102                                  0.106685                                
 J103                                  0.560969                                
 J104                                  0.395594                                
 J105                                  0.188102                                
 J106                                  0.143127                                
 J107                                  0.063979                                
 J108                                  0.057836                                
 J109                                  0.056030                                
 J110                                  0.043571                                
 J111                                  1.087814                                
 J112                                  0.323176                                
 J113                                  0.242859                                
 J114                                  0.165415                                
 J115                                  0.670752                                
 J116                                  0.141305                                

[EMITTERS]

[STATUS]

[PATTERNS]

[CURVES]

[CONTROLS]

[RULES]

[QUALITY]

[SOURCES]

[MIXING]

[REACTIONS]
 ORDER  BULK            1.00
 ORDER  WALL            1
 ORDER  TANK            1.00
 GLOBAL BULK            0.000000
 GLOBAL WALL            0.000000

[ENERGY]
 GLOBAL EFFIC        75.0000
 DEMAND CHARGE       0.0000

[TIMES]
 DURATION            0:00:00
 HYDRAULIC TIMESTEP  1:00:00
 QUALITY TIMESTEP    0:06:00
 REPORT TIMESTEP     1:00:00
 REPORT START        0:00:00
 PATTERN TIMESTEP    1:00:00
 PATTERN START       0:00:00
 RULE TIMESTEP       0:06:00
 START CLOCKTIME     0:00:00
 STATISTIC           NONE

[OPTIONS]
 UNITS               LPS
 PRESSURE            METERS
 HEADLOSS            H-W
 UNBALANCED          STOP
 QUALITY             NONE
 DEMAND MULTIPLIER   1.0000
 EMITTER EXPONENT    0.5000
 VISCOSITY           1.000000
 DIFFUSIVITY         1.000000
 SPECIFIC GRAVITY    1.000000
 TRIALS              500
 ACCURACY            0.00000001
 TOLERANCE           0.01000000
 CHECKFREQ           2
 MAXCHECK            10
 DAMPLIMIT           0.00000000

[REPORT]
 PAGESIZE            0
 STATUS              NO
 SUMMARY             YES
 ENERGY              NO
 MESSAGES            YES
 NODES               NONE
 LINKS               NONE
 Elevation           NO
 Demand              PRECISION 2
 Head                PRECISION 2
 Pressure            PRECISION 2
 Quality             PRECISION 2
 Length              NO
 Diameter            NO
 Flow                PRECISION 2
 Velocity            PRECISION 2
 Headloss            PRECISION 2
 Quality             NO
 State               NO
 Setting             NO
 Reaction            NO

[COORDINATES]
 J1                                  269.221036    2906.928566
 J2                                 3066.229464     624.690048
 J3                                 3427.618810     901.731806
 J4                                 2707.703055     603.469970
 J5                                  629.939257     936.073552
 J6                                 2282.495372    2273.977873
 J7                                  981.334011    2314.715498
 J8                                 3494.868903    2325.489994
 J9                                 3632.855960    2896.806932
 J10                                2920.759479    2973.966205
 J11                                1190.223744    3644.036410
 J12                                3236.609547    2141.877028
 J13                                 478.104146    1620.636766
 J14                                 475.602488    3507.735479
 J15                                2244.012261    1851.265894
 J16                                2799.676624    1493.811142
 J17                                3123.873092    3462.114581
 J18                                1741.994057    1351.292558
 J19                                3481.501118    1723.602052
 J20                                 150.381131    1789.880376
 J21                                3442.627684    3650.085325
 J22                                  12.894377    3418.348504
 J23                                 516.578168    3107.240618
 J24                                 298.156985     929.186879
 J25                                1610.750857     328.030537
 J26                                1357.935064    1585.590104
 J27                                2095.790225    1251.231310
 J28                                 994.239666    2958.016334
 J29                                2917.669358    1755.025660
 J30                                1393.458124    2705.376240
 J31                                2511.254550    1984.312503
 J32                                2574.503488     219.744214
 J33                                1796.480072    3176.775031
 J34                                 572.089098     406.055397
 J35                                2855.195184     284.034181
 J36                                2678.163312    3494.642697
 J37                                3578.388208     698.900574
 J38                                3440.589829    2595.013679
 J39                                3435.516860    3144.415036
 J40                                1812.350494    1905.615600
 J41                                 815.231115    3279.134111
 J42                                2404.217672     440.557155
 J43                                  25.163604    2832.618990
 J44                                1960.646698    1651.590034
 J45                                1553.473600     594.849763
 J46                                2349.939305     113.172961
 J47                                2401.534358    3257.330306
 J48                                2457.071274    2839.077164
 J49                                 169.359735    3140.960885
 J50                                1187.022014     168.825452
 J51                                 466.747258    2561.012881
 J52                                1674.779654    2827.881277
 J53                                  66.631275     495.053817
 J54                                1187.366289     464.567661
 J55                                1612.437683    3345.132621
 J56                                3668.696349    1136.098748
 J57                                 691.972229    1266.346284
 J58                                 136.287974    2491.368674
 J59                                2377.078979    1038.798293
 J60                                1891.709391     708.763593
 J61                                1282.085088    2238.418152
 J62                                1003.283171     619.636997
 J63                                3620.188822    2119.513894
 J64                                  64.837003    1446.509933
 J65                                2100.468539    2056.954017
 J66                                 295.415621     629.578884
 J67                                1623.597346    2208.551491
 J68                                3134.165727     110.234608
 J69                                2194.577547    3454.714156
 J70                                1833.527079     445.306169
 J71                                1707.456654    1038.693347
 J72                                2866.785757    2466.879247
 J73                                1098.777846     978.289886
 J74                                2303.462985    1396.492973
 J75                                2695.283600    2637.294314
 J76                                2737.916350    2178.007469
 J77                                3517.472683    1478.606713
 J78                                3239.027755    1282.492374
 J79                                 838.134567    3628.970394
 J80                                2192.770826     682.178475
 J81                                1985.289382      97.724450
 J82                                1811.913874    3509.448607
 J83                                3197.272297    1600.656935
 J84                                 773.175312    1844.231236
 J85                                1190.131641    3374.578747
 J86                                 959.024435    2010.921994
 J87                                1980.074572    2727.507219
 J88                                2129.780617     971.087031
 J89                                 774.455398     732.074874
 J90                                2070.624731    3147.621311
 J91                                2438.422289    2594.554003
 J92                                 226.783407    3594.892739
 J93                                 876.487427    1614.908314
 J94                                1656.739256    2462.479787
 J95                                 263.823237    2048.264595
 J96                                1088.295019    2542.780345
 J97                                 738.701330      92.835270
 J98                                1293.829406    1954.107215
 J99                                1154.986503    2779.952197
 J100                               1361.759018    1265.615924
 J101                                979.320367    1357.335890
 J102                               2668.566697    1015.482431
 J103                               1587.576031    1749.630909
 J104                               1358.197400     846.758886
 J105                                365.739975      40.314199
 J106                               3167.432642    2867.356260
 J107                                 58.366219    1106.123216
 J108                               3118.956225     358.795765
 J109                               3127.679178    2519.555819
 J110                               2941.535870    3638.130626
 J111                                535.792148    1999.194268
 J112                               2157.585023     392.769727
 J113                               2920.199602    2002.469806
 J114                               2930.968402    1025.928156
 J115                               1474.339724     107.164870
 J116                                539.563387    2326.277628
 R1                                 2628.163312    3444.642697

[VERTICES]

[END]
