[TITLE]

[JUNCTIONS]
 J1                                   25.9360
 J2                                   30.9311
 J3                                   19.8873
 J4                                   48.3318
 J5                                   40.1053
 J6                                   30.2635
 J7                                   49.5333
 J8                                   22.9184
 J9                                   58.9503
 J10                                  39.3154
 J11                                  13.8104
 J12                                  29.6142
 J13                                  27.5933
 J14                                  29.0458
 J15                                  48.1333
 J16                                  11.4026
 J17                                  30.8398
 J18                                  42.7126
 J19                                  37.3360
 J20                                  24.8683
 J21                                   3.0180
 J22                                  38.8212
 J23                                   9.4872
 J24                                  26.6014
 J25                                  26.4415
 J26                                  58.1262
 J27                                  38.3966
 J28                                  20.3559
 J29                                  25.3718
 J30                                  37.5905
 J31                                  45.6586
 J32                                  33.2360
 J33                                  38.2544
 J34                                   9.7172
 J35                                  31.1043
 J36                                  40.8420
 J37                                   2.9903
 J38                                  13.5353
 J39                                  22.8425
 J40                                  43.9052
 J41                                  43.2621
 J42                                  26.2556
 J43                                  17.5094
 J44                                  19.7496
 J45                                   0.0000
 J46                                  51.1129
 J47                                  19.5616
 J48                                  24.8091
 J49                                  14.6617
 J50                                  46.7406
 J51                                  46.1274
 J52                                  26.5536
 J53                                  45.9443
 J54                                  12.4989
 J55                                  31.3627
 J56                                  14.7094
 J57                                  17.8047
 J58                                   6.4622
 J59                                   3.3634
 J60                                  41.4083
 J61                                  43.8725
 J62                                  53.8842
 J63                                  48.5422
 J64                                  36.6148
 J65                                   5.0730
 J66                                  36.8145
 J67                                  43.5818
 J68                                  45.8829
 J69                                  39.5556
 J70                                  50.9019
 J71                                  42.8278

[RESERVOIRS]
 R1                                  128.5381                                
 R2                                  119.1211                                

[TANKS]

[PIPES]
 PS1                             R1                              J9                                   50.0000     800.0000     140.0000       0.0000       
 PS2                             R2                              J7                                   50.0000     800.0000     140.0000       0.0000       
 P1                              J1                              J8                                  578.2889     125.0000     101.5640       0.0000       
 P2                              J1                              J12                                 929.7943     125.0000     129.4511       0.0000       
 P3                              J1                              J20                                 653.3545      80.0000     102.8219       0.0000       
 P4                              J1                              J53                                 756.2034      80.0000     117.4853       0.0000       
 P5                              J2                              J6                                  398.3524      80.0000     129.0960       0.0000       
 P6                              J2                              J48                                 659.4904      80.0000     121.4819       0.0000       
 P7                              J2                              J55                                 789.0314      80.0000     102.0336       0.0000       
 P8                              J2                              J57                                 452.3594      80.0000     107.7187       0.0000       
 P9                              J3                              J8                                  440.1864      80.0000     127.3559       0.0000       
 P10                             J3                              J30                                 509.8743      80.0000     130.5433       0.0000       
 P11                             J3                              J60                                 438.7283      80.0000     133.5429       0.0000       
 P12                             J3                              J65                                 924.9410      80.0000     107.9149       0.0000       
 P13                             J4                              J18                                 658.7334     200.0000     130.5471       0.0000       
 P14                             J4                              J22                                 711.1869     250.0000     106.1575       0.0000       
 P15                             J4                              J62                                 473.3234      80.0000     123.6623       0.0000       
 P16                             J4                              J69                                 799.5189     150.0000     135.4439       0.0000       
 P17                             J5                              J18                                 523.4131      80.0000     137.3488       0.0000       
 P18                             J5                              J50                                 543.4772      80.0000     117.8059       0.0000       
 P19                             J5                              J64                                 501.5512      80.0000     130.6892       0.0000       
 P20                             J5                              J71                                 491.7805      80.0000     115.4760       0.0000       
 P21                             J6                              J55                                 786.6212      80.0000     103.1644       0.0000       
 P22                             J7                              J15                                 425.6805      80.0000     129.5371       0.0000       
 P23                             J7                              J32                                 417.3924      80.0000     104.9695       0.0000       
 P24                             J7                              J50                                 494.9055     150.0000     117.5585       0.0000       
 P25                             J7                              J61                                 523.9444      80.0000     135.8121       0.0000       
 P26                             J7                              J63                                 500.3354     100.0000     138.0006       0.0000       
 P27                             J8                              J13                                 764.8174      80.0000     135.1348       0.0000       
 P28                             J8                              J53                                 785.3495      80.0000     102.7933       0.0000       
 P29                             J9                              J35                                 782.3887      80.0000     110.6653       0.0000       
 P30                             J9                              J40                                 789.4729     350.0000     101.6749       0.0000       
 P31                             J9                              J67                                 622.1673     150.0000     120.7377       0.0000       
 P32                             J10                             J34                                 541.8281      80.0000     108.7444       0.0000       
 P33                             J10                             J36                                 723.9458      80.0000     106.6723       0.0000       
 P34                             J10                             J47                                 949.5109      80.0000     103.9569       0.0000       
 P35                             J11                             J20                                 821.4372     100.0000     112.9964       0.0000       
 P36                             J11                             J23                                 460.9564      80.0000     122.5348       0.0000       
 P37                             J11                             J38                                 532.7908      80.0000     101.6909       0.0000       
 P38                             J11                             J48                                 452.5828      80.0000     105.0827       0.0000       
 P39                             J12                             J20                                 985.6920     100.0000     117.8385       0.0000       
 P40                             J12                             J54                                 659.7267      80.0000     113.8491       0.0000       
 P41                             J12                             J61                                1021.3657      80.0000     127.5054       0.0000       
 P42                             J12                             J64                                 565.8260     200.0000     110.4293       0.0000       
 P43                             J13                             J48                                 579.3251      80.0000     133.0171       0.0000       
 P44                             J13                             J57                                 572.5508      80.0000     119.5663       0.0000       
 P45                             J14                             J47                                 611.3336      80.0000     102.0910       0.0000       
 P46                             J14                             J69                                 498.7177     100.0000     109.0486       0.0000       
 P47                             J15                             J32                                 482.9608      80.0000     115.2839       0.0000       
 P48                             J15                             J50                                 437.2427      80.0000     112.2285       0.0000       
 P49                             J15                             J69                                 448.3462      80.0000     126.6557       0.0000       
 P50                             J16                             J33                                 648.0573      80.0000     124.2482       0.0000       
 P51                             J16                             J51                                1009.9581      80.0000     111.5901       0.0000       
 P52                             J16                             J56                                 584.3351      80.0000     135.1117       0.0000       
 P53                             J17                             J21                                 458.2431      80.0000     134.2726       0.0000       
 P54                             J17                             J30                                 496.5377      80.0000     133.2051       0.0000       
 P55                             J17                             J31                                 927.9039      80.0000     110.4329       0.0000       
 P56                             J18                             J50                                 440.3494     200.0000     124.6063       0.0000       
 P57                             J18                             J71                                 658.1504      80.0000     134.4759       0.0000       
 P58                             J19                             J28                                 515.7859     100.0000     111.3818       0.0000       
 P59                             J19                             J39                                 703.0078      80.0000     126.7100       0.0000       
 P60                             J19                             J42                                 601.6038      80.0000     107.7895       0.0000       
 P61                             J19                             J46                                 736.0525      80.0000     113.5523       0.0000       
 P62                             J20                             J49                                 517.7463      80.0000     138.0942       0.0000       
 P63                             J21                             J37                                 515.9811      80.0000     139.4127       0.0000       
 P64                             J22                             J40                                 886.7080     350.0000     120.5610       0.0000       
 P65                             J22                             J51                                 516.6623     200.0000     106.8799       0.0000       
 P66                             J23                             J38                                 562.7497      80.0000     111.8589       0.0000       
 P67                             J23                             J59                                 513.4094      80.0000     124.6323       0.0000       
 P68                             J24                             J28                                 486.3876     100.0000     135.0533       0.0000       
 P69                             J24                             J29                                 932.9230      80.0000     134.0115       0.0000       
 P70                             J24                             J68                                 523.6232     125.0000     101.1085       0.0000       
 P71                             J25                             J39                                 651.8124      80.0000     124.8847       0.0000       
 P72                             J25                             J43                                 643.6314      80.0000     100.6336       0.0000       
 P73                             J26                             J46                                 482.2316      80.0000     110.5237       0.0000       
 P74                             J26                             J66                                 428.2603      80.0000     107.2328       0.0000       
 P75                             J26                             J68                                 443.1446      80.0000     110.7729       0.0000       
 P76                             J27                             J35                                 547.2781      80.0000     124.2450       0.0000       
 P77                             J27                             J40                                 737.7106      80.0000     122.2224       0.0000       
 P78                             J27                             J70                                 443.0805      80.0000     139.1747       0.0000       
 P79                             J28                             J54                                 559.8913      80.0000     126.5499       0.0000       
 P80                             J29                             J54                                1015.9376      80.0000     134.8621       0.0000       
 P81                             J29                             J64                                 418.1805      80.0000     119.8143       0.0000       
 P82                             J30                             J52                                 460.7521      80.0000     112.3051       0.0000       
 P83                             J30                             J60                                 442.2154      80.0000     128.9919       0.0000       
 P84                             J31                             J37                                 591.0539      80.0000     136.1033       0.0000       
 P85                             J31                             J60                                 502.9811      80.0000     120.0554       0.0000       
 P86                             J31                             J63                                 747.7527     100.0000     132.7840       0.0000       
 P87                             J32                             J58                                 935.4013     100.0000     112.9024       0.0000       
 P88                             J32                             J69                                 580.6204     100.0000     124.7203       0.0000       
 P89                             J33                             J56                                 599.1955     150.0000     128.7332       0.0000       
 P90                             J33                             J68                                 610.6124     150.0000     124.6797       0.0000       
 P91                             J34                             J45                                 450.9562      80.0000     136.7949       0.0000       
 P92                             J34                             J47                                 818.4984      80.0000     101.5507       0.0000       
 P93                             J34                             J58                                 503.0668      80.0000     129.1692       0.0000       
 P94                             J35                             J40                                 457.0933      80.0000     114.7949       0.0000       
 P95                             J37                             J45                                 421.9804      80.0000     105.6975       0.0000       
 P96                             J37                             J58                                 514.9418      80.0000     104.6607       0.0000       
 P97                             J38                             J42                                 537.4674      80.0000     123.0405       0.0000       
 P98                             J38                             J44                                 645.3582      80.0000     123.7972       0.0000       
 P99                             J38                             J49                                 539.9141      80.0000     130.5545       0.0000       
 P100                            J39                             J43                                 569.5639      80.0000     110.3393       0.0000       
 P101                            J40                             J41                                 821.2287     100.0000     136.4603       0.0000       
 P102                            J40                             J67                                 782.8686     100.0000     106.2918       0.0000       
 P103                            J41                             J56                                 683.2559     150.0000     107.8657       0.0000       
 P104                            J41                             J67                                 642.6393     150.0000     131.6682       0.0000       
 P105                            J42                             J43                                 709.8126      80.0000     138.9159       0.0000       
 P106                            J42                             J44                                 441.1583      80.0000     100.1434       0.0000       
 P107                            J45                             J58                                 461.3178      80.0000     130.0760       0.0000       
 P108                            J46                             J66                                 445.9127      80.0000     103.9822       0.0000       
 P109                            J48                             J59                                 654.2282      80.0000     107.9352       0.0000       
 P110                            J49                             J54                                 553.7533      80.0000     130.9648       0.0000       
 P111                            J50                             J61                                 580.7690      80.0000     117.4974       0.0000       
 P112                            J51                             J71                                 449.0482     200.0000     116.7791       0.0000       
 P113                            J52                             J65                                 451.4400      80.0000     121.8250       0.0000       
 P114                            J53                             J61                                 573.3973      80.0000     120.6324       0.0000       
 P115                            J53                             J63                                 527.8153      80.0000     125.0959       0.0000       
 P116                            J55                             J65                                 931.7408      80.0000     133.0608       0.0000       
 P117                            J58                             J63                                 784.0091      80.0000     118.3829       0.0000       
 P118                            J61                             J63                                 550.5031      80.0000     116.9526       0.0000       
 P119                            J62                             J70                                 453.5368      80.0000     131.3681       0.0000       
 P120                            J64                             J71                                 473.2136     200.0000     125.6569       0.0000       

[PUMPS]

[VALVES]

[DEMANDS]
 J1                                    0.799172                                
 J2                                    2.029251                                
 J3                                    0.368301                                
 J4                                    0.457282                                
 J5                                    0.597218                                
 J6                                    0.417541                                
 J7                                    8.007630                                
 J8                                    2.710877                                
 J9                                    3.248681                                
 J10                                   1.352541                                
 J11                                   0.382784                                
 J12                                   1.033392                                
 J13                                   0.961857                                
 J14                                   0.763004                                
 J15                                   1.392750                                
 J16                                   0.443952                                
 J17                                   2.285079                                
 J18                                   2.004219                                
 J19                                   0.789315                                
 J20                                   0.715059                                
 J21                                   1.360277                                
 J22                                   4.041617                                
 J23                                   0.434495                                
 J24                                   1.029491                                
 J25                                   2.085253                                
 J26                                   0.409464                                
 J27                                   0.658217                                
 J28                                   1.075740                                
 J29                                   1.243599                                
 J30                                   2.068159                                
 J31                                   1.390901                                
 J32                                   1.039806                                
 J33                                   1.735621                                
 J34                                   0.934331                                
 J35                                   1.175112                                
 J36                                   0.956684                                
 J37                                   0.831230                                
 J38                                   0.862348                                
 J39                                   1.289138                                
 J40                                   1.646313                                
 J41                                   0.617722                                
 J42                                   0.673435                                
 J43                                   0.229548                                
 J44                                   0.797880                                
 J45                                   1.036564                                
 J46                                   1.465197                                
 J47                                   1.260834                                
 J48                                   1.096108                                
 J49                                   2.000244                                
 J50                                   0.643718                                
 J51                                   1.241173                                
 J52                                   1.275279                                
 J53                                   0.953017                                
 J54                                   1.075064                                
 J55                                   0.359749                                
 J56                                   0.135775                                
 J57                                   1.201143                                
 J58                                   2.573852                                
 J59                                   0.816127                                
 J60                                   1.113530                                
 J61                                   3.524920                                
 J62                                   1.642441                                
 J63                                   1.465797                                
 J64                                   0.413636                                
 J65                                   0.932527                                
 J66                                   1.136124                                
 J67                                   0.512862                                
 J68                                   1.196889                                
 J69                                   0.444369                                
 J70                                   0.973361                                
 J71                                   2.148361                                

[EMITTERS]

[STATUS]

[PATTERNS]

[CURVES]

[CONTROLS]

[RULES]

[QUALITY]

[SOURCES]

[MIXING]

[REACTIONS]
 ORDER  BULK            1.00
 ORDER  WALL            1
 ORDER  TANK            1.00
 GLOBAL BULK            0.000000
 GLOBAL WALL            0.000000

[ENERGY]
 GLOBAL EFFIC        75.0000
 DEMAND CHARGE       0.0000

[TIMES]
 DURATION            0:00:00
 HYDRAULIC TIMESTEP  1:00:00
 QUALITY TIMESTEP    0:06:00
 REPORT TIMESTEP     1:00:00
 REPORT START        0:00:00
 PATTERN TIMESTEP    1:00:00
 PATTERN START       0:00:00
 RULE TIMESTEP       0:06:00
 START CLOCKTIME     0:00:00
 STATISTIC           NONE

[OPTIONS]
 UNITS               LPS
 PRESSURE            METERS
 HEADLOSS            H-W
 UNBALANCED          STOP
 QUALITY             NONE
 DEMAND MULTIPLIER   1.0000
 EMITTER EXPONENT    0.5000
 VISCOSITY           1.000000
 DIFFUSIVITY         1.000000
 SPECIFIC GRAVITY    1.000000
 TRIALS              500
 ACCURACY            0.00000001
 TOLERANCE           0.01000000
 CHECKFREQ           2
 MAXCHECK            10
 DAMPLIMIT           0.00000000

[REPORT]
 PAGESIZE            0
 STATUS              NO
 SUMMARY             YES
 ENERGY              NO
 MESSAGES            YES
 NODES               NONE
 LINKS               NONE
 Elevation           NO
 Demand              PRECISION 2
 Head                PRECISION 2
 Pressure            PRECISION 2
 Quality             PRECISION 2
 Length              NO
 Diameter            NO
 Flow                PRECISION 2
 Velocity            PRECISION 2
 Headloss            PRECISION 2
 Quality             NO
 State               NO
 Setting             NO
 Reaction            NO

[COORDINATES]
 J1                                 1740.547214    2499.987870
 J2                                  992.091152    3768.560744
 J3                                  945.022140    2834.264425
 J4                                 2473.416454     567.718515
 J5                                 2491.561239    1545.780927
 J6                                 1163.117633    4102.516114
 J7                                 1661.333469    1310.671654
 J8                                 1290.512764    2639.987092
 J9                                 4338.085628     328.981753
 J10                                 295.002898     544.580582
 J11                                2013.065003    3719.373420
 J12                                2474.765913    2253.226516
 J13                                1517.568452    3297.912401
 J14                                1511.704366     278.019580
 J15                                1868.125270     991.809735
 J16                                3743.504537    1876.116314
 J17                                 148.194175    2409.053843
 J18                                2452.131222    1119.852494
 J19                                3274.927319    3382.504759
 J20                                1989.255187    2968.239277
 J21                                 108.646575    2002.094221
 J22                                3034.482472     820.309588
 J23                                2221.209347    4023.892054
 J24                                3498.765705    2710.685154
 J25                                3888.773945    4313.274990
 J26                                4172.883068    2889.165426
 J27                                3232.227386     126.800288
 J28                                3151.782045    2960.151735
 J29                                3140.641300    1933.459692
 J30                                 507.149310    2693.758051
 J31                                 821.912272    2021.330899
 J32                                1435.047197     993.584070
 J33                                4206.453412    2135.894192
 J34                                 511.055479     968.915937
 J35                                3707.169965     125.966731
 J36                                 633.400575      20.443493
 J37                                 414.022833    1647.315257
 J38                                2463.180373    3553.421135
 J39                                3709.355439    3816.470878
 J40                                3697.028742     514.008952
 J41                                3800.714907    1174.483076
 J42                                2885.457607    3717.479770
 J43                                3333.025286    4138.604001
 J44                                2709.941762    4088.966790
 J45                                 289.685361    1271.220966
 J46                                3853.893802    3134.651242
 J47                                1082.428196     557.267581
 J48                                1600.120056    3755.555524
 J49                                2425.491227    3070.351182
 J50                                2093.790566    1292.369752
 J51                                3185.338421    1230.189727
 J52                                 276.144681    3022.908001
 J53                                1371.824302    1989.014714
 J54                                2733.663342    2734.800488
 J55                                 477.665738    4183.569891
 J56                                4165.384946    1605.541786
 J57                                 986.084266    3385.388130
 J58                                 706.274237    1328.556058
 J59                                1899.895406    4291.192640
 J60                                 831.060892    2441.314968
 J61                                1805.616322    1741.900908
 J62                                2444.698531     129.559116
 J63                                1341.700853    1562.460588
 J64                                2777.291182    1848.014895
 J65                                 415.825142    3423.755350
 J66                                4225.041704    3270.222200
 J67                                4261.917148     914.639164
 J68                                3929.486836    2571.705514
 J69                                1807.816368     603.037817
 J70                                2820.240136     153.720788
 J71                                2881.071099    1449.401169
 R1                                 4288.085628     278.981753
 R2                                 1611.333469    1260.671654

[VERTICES]

[END]
